*Heading
** Job name: TPB Model name: Model-1
** Generated by: Abaqus/CAE 2024
*Preprint, echo=NO, model=NO, history=NO, contact=NO
**
** PARTS
**
*Part, name=TPB
*Node
      1,         -2.5,  -6.15500021
      2,         -7.5,  -6.15500021
      3,  -23.0400009,  -6.15500021
      4,  -23.0400009,         -50.
      5,         -2.5,         -50.
      6,   23.0400009,          50.
      7,   23.0400009,  -6.15500021
      8,   23.0400009,         -50.
      9,         225.,         -50.
     10,         225.,          50.
     11,  -23.0400009,          50.
     12,        -225.,          50.
     13,        -225.,         -50.
     14,         -2.5,           0.
     15,         -7.5,           0.
     16,         -7.5,          50.
     17,          2.5,  -6.15500021
     18,          7.5,  -6.15500021
     19,          7.5,           0.
     20,          2.5,           0.
     21,          7.5,          50.
     22,   3.48728943,          50.
     23,  -4.15792084,          50.
     24,          2.5,         -50.
     25,  -12.6800003,  -6.15500021
     26,  -17.8600006,  -6.15500021
     27,  -23.0400009,  -11.0266666
     28,  -23.0400009,  -15.8983335
     29,  -23.0400009,  -20.7700005
     30,  -23.0400009,  -25.6416664
     31,  -23.0400009,  -30.5133343
     32,  -23.0400009,  -35.3849983
     33,  -23.0400009,  -40.2566681
     34,  -23.0400009,   -45.128334
     35,  -17.9050007,         -50.
     36,  -12.7700005,         -50.
     37,  -7.63500023,         -50.
     38,         -2.5,   -45.128334
     39,         -2.5,  -40.2566681
     40,         -2.5,  -35.3849983
     41,         -2.5,  -30.5133343
     42,         -2.5,  -25.6416664
     43,         -2.5,  -20.7700005
     44,         -2.5,  -15.8983335
     45,         -2.5,  -11.0266666
     46,   23.0400009,   44.8950005
     47,   23.0400009,   39.7900009
     48,   23.0400009,   34.6850014
     49,   23.0400009,   29.5799999
     50,   23.0400009,   24.4750004
     51,   23.0400009,   19.3700008
     52,   23.0400009,   14.2650003
     53,   23.0400009,   9.15999985
     54,   23.0400009,   4.05499983
     55,   23.0400009,  -1.04999995
     56,   23.0400009,  -11.0266666
     57,   23.0400009,  -15.8983335
     58,   23.0400009,  -20.7700005
     59,   23.0400009,  -25.6416664
     60,   23.0400009,  -30.5133343
     61,   23.0400009,  -35.3849983
     62,   23.0400009,  -40.2566681
     63,   23.0400009,   -45.128334
     64,   28.0890007,         -50.
     65,   33.1380005,         -50.
     66,   38.1870003,         -50.
     67,   43.2360001,         -50.
     68,   48.2849998,         -50.
     69,   53.3339996,         -50.
     70,   58.3829994,         -50.
     71,   63.4319992,         -50.
     72,   68.4810028,         -50.
     73,   73.5299988,         -50.
     74,   78.5790024,         -50.
     75,   83.6279984,         -50.
     76,    88.677002,         -50.
     77,   93.7259979,         -50.
     78,   98.7750015,         -50.
     79,   103.823997,         -50.
     80,   108.873001,         -50.
     81,   113.921997,         -50.
     82,   118.971001,         -50.
     83,   124.019997,         -50.
     84,      129.069,         -50.
     85,   134.117996,         -50.
     86,   139.167007,         -50.
     87,   144.216003,         -50.
     88,   149.264999,         -50.
     89,   154.313995,         -50.
     90,   159.363007,         -50.
     91,   164.412003,         -50.
     92,   169.460999,         -50.
     93,   174.509995,         -50.
     94,   179.559006,         -50.
     95,   184.608002,         -50.
     96,   189.656998,         -50.
     97,   194.705994,         -50.
     98,   199.755005,         -50.
     99,   204.804001,         -50.
    100,   209.852997,         -50.
    101,   214.901993,         -50.
    102,   219.951004,         -50.
    103,         225.,         -45.
    104,         225.,         -40.
    105,         225.,         -35.
    106,         225.,         -30.
    107,         225.,         -25.
    108,         225.,         -20.
    109,         225.,         -15.
    110,         225.,         -10.
    111,         225.,          -5.
    112,         225.,           0.
    113,         225.,           5.
    114,         225.,          10.
    115,         225.,          15.
    116,         225.,          20.
    117,         225.,          25.
    118,         225.,          30.
    119,         225.,          35.
    120,         225.,          40.
    121,         225.,          45.
    122,   219.951004,          50.
    123,   214.901993,          50.
    124,   209.852997,          50.
    125,   204.804001,          50.
    126,   199.755005,          50.
    127,   194.705994,          50.
    128,   189.656998,          50.
    129,   184.608002,          50.
    130,   179.559006,          50.
    131,   174.509995,          50.
    132,   169.460999,          50.
    133,   164.412003,          50.
    134,   159.363007,          50.
    135,   154.313995,          50.
    136,   149.264999,          50.
    137,   144.216003,          50.
    138,   139.167007,          50.
    139,   134.117996,          50.
    140,      129.069,          50.
    141,   124.019997,          50.
    142,   118.971001,          50.
    143,   113.921997,          50.
    144,   108.873001,          50.
    145,   103.823997,          50.
    146,   98.7750015,          50.
    147,   93.7259979,          50.
    148,    88.677002,          50.
    149,   83.6279984,          50.
    150,   78.5790024,          50.
    151,   73.5299988,          50.
    152,   68.4810028,          50.
    153,   63.4319992,          50.
    154,   58.3829994,          50.
    155,   53.3339996,          50.
    156,   48.2849998,          50.
    157,   43.2360001,          50.
    158,   38.1870003,          50.
    159,   33.1380005,          50.
    160,   28.0890007,          50.
    161,  -23.0400009,  -1.04999995
    162,  -23.0400009,   4.05499983
    163,  -23.0400009,   9.15999985
    164,  -23.0400009,   14.2650003
    165,  -23.0400009,   19.3700008
    166,  -23.0400009,   24.4750004
    167,  -23.0400009,   29.5799999
    168,  -23.0400009,   34.6850014
    169,  -23.0400009,   39.7900009
    170,  -23.0400009,   44.8950005
    171,  -28.0890007,          50.
    172,  -33.1380005,          50.
    173,  -38.1870003,          50.
    174,  -43.2360001,          50.
    175,  -48.2849998,          50.
    176,  -53.3339996,          50.
    177,  -58.3829994,          50.
    178,  -63.4319992,          50.
    179,  -68.4810028,          50.
    180,  -73.5299988,          50.
    181,  -78.5790024,          50.
    182,  -83.6279984,          50.
    183,   -88.677002,          50.
    184,  -93.7259979,          50.
    185,  -98.7750015,          50.
    186,  -103.823997,          50.
    187,  -108.873001,          50.
    188,  -113.921997,          50.
    189,  -118.971001,          50.
    190,  -124.019997,          50.
    191,     -129.069,          50.
    192,  -134.117996,          50.
    193,  -139.167007,          50.
    194,  -144.216003,          50.
    195,  -149.264999,          50.
    196,  -154.313995,          50.
    197,  -159.363007,          50.
    198,  -164.412003,          50.
    199,  -169.460999,          50.
    200,  -174.509995,          50.
    201,  -179.559006,          50.
    202,  -184.608002,          50.
    203,  -189.656998,          50.
    204,  -194.705994,          50.
    205,  -199.755005,          50.
    206,  -204.804001,          50.
    207,  -209.852997,          50.
    208,  -214.901993,          50.
    209,  -219.951004,          50.
    210,        -225.,          45.
    211,        -225.,          40.
    212,        -225.,          35.
    213,        -225.,          30.
    214,        -225.,          25.
    215,        -225.,          20.
    216,        -225.,          15.
    217,        -225.,          10.
    218,        -225.,           5.
    219,        -225.,           0.
    220,        -225.,          -5.
    221,        -225.,         -10.
    222,        -225.,         -15.
    223,        -225.,         -20.
    224,        -225.,         -25.
    225,        -225.,         -30.
    226,        -225.,         -35.
    227,        -225.,         -40.
    228,        -225.,         -45.
    229,  -219.951004,         -50.
    230,  -214.901993,         -50.
    231,  -209.852997,         -50.
    232,  -204.804001,         -50.
    233,  -199.755005,         -50.
    234,  -194.705994,         -50.
    235,  -189.656998,         -50.
    236,  -184.608002,         -50.
    237,  -179.559006,         -50.
    238,  -174.509995,         -50.
    239,  -169.460999,         -50.
    240,  -164.412003,         -50.
    241,  -159.363007,         -50.
    242,  -154.313995,         -50.
    243,  -149.264999,         -50.
    244,  -144.216003,         -50.
    245,  -139.167007,         -50.
    246,  -134.117996,         -50.
    247,     -129.069,         -50.
    248,  -124.019997,         -50.
    249,  -118.971001,         -50.
    250,  -113.921997,         -50.
    251,  -108.873001,         -50.
    252,  -103.823997,         -50.
    253,  -98.7750015,         -50.
    254,  -93.7259979,         -50.
    255,   -88.677002,         -50.
    256,  -83.6279984,         -50.
    257,  -78.5790024,         -50.
    258,  -73.5299988,         -50.
    259,  -68.4810028,         -50.
    260,  -63.4319992,         -50.
    261,  -58.3829994,         -50.
    262,  -53.3339996,         -50.
    263,  -48.2849998,         -50.
    264,  -43.2360001,         -50.
    265,  -38.1870003,         -50.
    266,  -33.1380005,         -50.
    267,  -28.0890007,         -50.
    268,          -3.,           0.
    269,         -3.5,           0.
    270,          -4.,           0.
    271,         -4.5,           0.
    272,          -5.,           0.
    273,         -5.5,           0.
    274,          -6.,           0.
    275,         -6.5,           0.
    276,          -7.,           0.
    277,         -7.5,  -1.15406251
    278,         -7.5,   -3.0775001
    279,         -2.5,   -3.0775001
    280,         -2.5,  -1.15406251
    281,         -2.5, -0.432773441
    282,         -7.5,          0.5
    283,         -7.5,           1.
    284,         -7.5,          1.5
    285,         -7.5,           2.
    286,         -7.5,          2.5
    287,         -7.5,           3.
    288,         -7.5,          3.5
    289,         -7.5,           4.
    290,         -7.5,          4.5
    291,         -7.5,           5.
    292,         -7.5,          5.5
    293,         -7.5,           6.
    294,         -7.5,          6.5
    295,         -7.5,           7.
    296,         -7.5,          7.5
    297,         -7.5,           8.
    298,         -7.5,          8.5
    299,         -7.5,           9.
    300,         -7.5,          9.5
    301,         -7.5,          10.
    302,         -7.5,         10.5
    303,         -7.5,          11.
    304,         -7.5,         11.5
    305,         -7.5,          12.
    306,         -7.5,         12.5
    307,         -7.5,          13.
    308,         -7.5,         13.5
    309,         -7.5,          14.
    310,         -7.5,         14.5
    311,         -7.5,          15.
    312,         -7.5,         15.5
    313,         -7.5,          16.
    314,         -7.5,         16.5
    315,         -7.5,          17.
    316,         -7.5,         17.5
    317,         -7.5,          18.
    318,         -7.5,         18.5
    319,         -7.5,          19.
    320,         -7.5,         19.5
    321,         -7.5,          20.
    322,         -7.5,         20.5
    323,         -7.5,          21.
    324,         -7.5,         21.5
    325,         -7.5,          22.
    326,         -7.5,         22.5
    327,         -7.5,          23.
    328,         -7.5,         23.5
    329,         -7.5,          24.
    330,         -7.5,         24.5
    331,         -7.5,          25.
    332,         -7.5,         25.5
    333,         -7.5,          26.
    334,         -7.5,         26.5
    335,         -7.5,          27.
    336,         -7.5,         27.5
    337,         -7.5,          28.
    338,         -7.5,         28.5
    339,         -7.5,          29.
    340,         -7.5,         29.5
    341,         -7.5,          30.
    342,         -7.5,         30.5
    343,         -7.5,          31.
    344,         -7.5,         31.5
    345,         -7.5,          32.
    346,         -7.5,         32.5
    347,         -7.5,          33.
    348,         -7.5,         33.5
    349,         -7.5,          34.
    350,         -7.5,         34.5
    351,         -7.5,          35.
    352,         -7.5,         35.5
    353,         -7.5,          36.
    354,         -7.5,         36.5
    355,         -7.5,          37.
    356,         -7.5,         37.5
    357,         -7.5,          38.
    358,         -7.5,         38.5
    359,         -7.5,          39.
    360,         -7.5,         39.5
    361,         -7.5,          40.
    362,         -7.5,         40.5
    363,         -7.5,          41.
    364,         -7.5,         41.5
    365,         -7.5,          42.
    366,         -7.5,         42.5
    367,         -7.5,          43.
    368,         -7.5,         43.5
    369,         -7.5,          44.
    370,         -7.5,         44.5
    371,         -7.5,          45.
    372,         -7.5,         45.5
    373,         -7.5,          46.
    374,         -7.5,         46.5
    375,         -7.5,          47.
    376,         -7.5,         47.5
    377,         -7.5,          48.
    378,         -7.5,         48.5
    379,         -7.5,          49.
    380,         -7.5,         49.5
    381,  -8.22843742,          50.
    382,  -9.44250011,          50.
    383,  -12.6800003,          50.
    384,  -17.8600006,          50.
    385,           5.,  -6.15500021
    386,          7.5,   -3.0775001
    387,          7.5,  -1.15406251
    388,           7.,           0.
    389,          6.5,           0.
    390,           6.,           0.
    391,          5.5,           0.
    392,           5.,           0.
    393,          4.5,           0.
    394,           4.,           0.
    395,          3.5,           0.
    396,           3.,           0.
    397,          2.5,  -1.15406251
    398,          2.5,   -3.0775001
    399,          7.5,          0.5
    400,          7.5,           1.
    401,          7.5,          1.5
    402,          7.5,           2.
    403,          7.5,          2.5
    404,          7.5,           3.
    405,          7.5,          3.5
    406,          7.5,           4.
    407,          7.5,          4.5
    408,          7.5,           5.
    409,          7.5,          5.5
    410,          7.5,           6.
    411,          7.5,          6.5
    412,          7.5,           7.
    413,          7.5,          7.5
    414,          7.5,           8.
    415,          7.5,          8.5
    416,          7.5,           9.
    417,          7.5,          9.5
    418,          7.5,          10.
    419,          7.5,         10.5
    420,          7.5,          11.
    421,          7.5,         11.5
    422,          7.5,          12.
    423,          7.5,         12.5
    424,          7.5,          13.
    425,          7.5,         13.5
    426,          7.5,          14.
    427,          7.5,         14.5
    428,          7.5,          15.
    429,          7.5,         15.5
    430,          7.5,          16.
    431,          7.5,         16.5
    432,          7.5,          17.
    433,          7.5,         17.5
    434,          7.5,          18.
    435,          7.5,         18.5
    436,          7.5,          19.
    437,          7.5,         19.5
    438,          7.5,          20.
    439,          7.5,         20.5
    440,          7.5,          21.
    441,          7.5,         21.5
    442,          7.5,          22.
    443,          7.5,         22.5
    444,          7.5,          23.
    445,          7.5,         23.5
    446,          7.5,          24.
    447,          7.5,         24.5
    448,          7.5,          25.
    449,          7.5,         25.5
    450,          7.5,          26.
    451,          7.5,         26.5
    452,          7.5,          27.
    453,          7.5,         27.5
    454,          7.5,          28.
    455,          7.5,         28.5
    456,          7.5,          29.
    457,          7.5,         29.5
    458,          7.5,          30.
    459,          7.5,         30.5
    460,          7.5,          31.
    461,          7.5,         31.5
    462,          7.5,          32.
    463,          7.5,         32.5
    464,          7.5,          33.
    465,          7.5,         33.5
    466,          7.5,          34.
    467,          7.5,         34.5
    468,          7.5,          35.
    469,          7.5,         35.5
    470,          7.5,          36.
    471,          7.5,         36.5
    472,          7.5,          37.
    473,          7.5,         37.5
    474,          7.5,          38.
    475,          7.5,         38.5
    476,          7.5,          39.
    477,          7.5,         39.5
    478,          7.5,          40.
    479,          7.5,         40.5
    480,          7.5,          41.
    481,          7.5,         41.5
    482,          7.5,          42.
    483,          7.5,         42.5
    484,          7.5,          43.
    485,          7.5,         43.5
    486,          7.5,          44.
    487,          7.5,         44.5
    488,          7.5,          45.
    489,          7.5,         45.5
    490,          7.5,          46.
    491,          7.5,         46.5
    492,          7.5,          47.
    493,          7.5,         47.5
    494,          7.5,          48.
    495,          7.5,         48.5
    496,          7.5,          49.
    497,          7.5,         49.5
    498,   6.99841118,          50.
    499,   6.49682236,          50.
    500,   5.99523354,          50.
    501,   5.49364471,          50.
    502,   4.99205589,          50.
    503,   4.49046707,          50.
    504,   3.98887825,          50.
    505,   2.97760868,          50.
    506,   2.46792817,          50.
    507,   1.95824742,          50.
    508,   1.44856668,          50.
    509,  0.938885987,          50.
    510,  0.429205328,          50.
    511, -0.0804753602,          50.
    512, -0.590156019,          50.
    513,  -1.09983671,          50.
    514,  -1.60951746,          50.
    515,  -2.11919808,          50.
    516,  -2.62887883,          50.
    517,  -3.13855958,          50.
    518,  -3.64824009,          50.
    519,  -4.63536072,          50.
    520,   -5.1128006,          50.
    521,  -5.59024048,          50.
    522,  -6.06768036,          50.
    523,  -6.54512024,          50.
    524,  -7.02256012,          50.
    525,          -2.,           0.
    526,         -1.5,           0.
    527,          -1.,           0.
    528,         -0.5,           0.
    529,           0.,           0.
    530,          0.5,           0.
    531,           1.,           0.
    532,          1.5,           0.
    533,           2.,           0.
    534,   17.8600006,  -6.15500021
    535,   12.6800003,  -6.15500021
    536,          2.5,  -11.0266666
    537,          2.5,  -15.8983335
    538,          2.5,  -20.7700005
    539,          2.5,  -25.6416664
    540,          2.5,  -30.5133343
    541,          2.5,  -35.3849983
    542,          2.5,  -40.2566681
    543,          2.5,   -45.128334
    544,   7.63500023,         -50.
    545,   12.7700005,         -50.
    546,   17.9050007,         -50.
    547,   17.8600006,          50.
    548,   12.6800003,          50.
    549,   9.44250011,          50.
    550,   8.22843742,          50.
    551,  -7.51499987,  -11.0266666
    552,  -12.6899996,  -11.0266666
    553,  -17.8649998,  -11.0266666
    554,  -7.53000021,  -15.8983335
    555,  -12.6999998,  -15.8983335
    556,  -17.8700008,  -15.8983335
    557,  -7.54500008,  -20.7700005
    558,       -12.71,  -20.7700005
    559,      -17.875,  -20.7700005
    560,  -7.55999994,  -25.6416664
    561,  -12.7200003,  -25.6416664
    562,  -17.8799992,  -25.6416664
    563,  -7.57499981,  -30.5133343
    564,  -12.7299995,  -30.5133343
    565,  -17.8850002,  -30.5133343
    566,  -7.59000015,  -35.3849983
    567,  -12.7399998,  -35.3849983
    568,  -17.8899994,  -35.3849983
    569,  -7.60500002,  -40.2566681
    570,       -12.75,  -40.2566681
    571,  -17.8950005,  -40.2566681
    572,  -7.61999989,   -45.128334
    573,  -12.7600002,   -45.128334
    574,  -17.8999996,   -45.128334
    575,   28.0890007,    44.897625
    576,   28.0890007,   39.7952499
    577,   28.0890007,   34.6928749
    578,   28.0890007,   29.5904999
    579,   28.0890007,   24.4881248
    580,   28.0890007,   19.3857498
    581,   28.0890007,   14.2833748
    582,   28.0890007,   9.18099976
    583,   28.0890007,    4.0786252
    584,   28.0890007,  -1.02374995
    585,   28.0890007,  -6.12612486
    586,   28.0890007,  -11.0010004
    587,   28.0890007,  -15.8758755
    588,   28.0890007,  -20.7507496
    589,   28.0890007,  -25.6256256
    590,   28.0890007,  -30.5004997
    591,   28.0890007,  -35.3753738
    592,   28.0890007,  -40.2502518
    593,   28.0890007,  -45.1251259
    594,   33.1380005,   44.9002495
    595,   33.1380005,    39.800499
    596,   33.1380005,   34.7007484
    597,   33.1380005,   29.6009998
    598,   33.1380005,   24.5012493
    599,   33.1380005,   19.4015007
    600,   33.1380005,   14.3017502
    601,   33.1380005,   9.20199966
    602,   33.1380005,    4.1022501
    603,   33.1380005, -0.997500002
    604,   33.1380005,  -6.09724998
    605,   33.1380005,  -10.9753332
    606,   33.1380005,  -15.8534164
    607,   33.1380005,  -20.7315006
    608,   33.1380005,  -25.6095829
    609,   33.1380005,  -30.4876671
    610,   33.1380005,  -35.3657494
    611,   33.1380005,  -40.2438316
    612,   33.1380005,  -45.1219177
    613,   38.1870003,    44.902874
    614,   38.1870003,   39.8057518
    615,   38.1870003,   34.7086258
    616,   38.1870003,   29.6114998
    617,   38.1870003,   24.5143757
    618,   38.1870003,   19.4172497
    619,   38.1870003,   14.3201246
    620,   38.1870003,   9.22299957
    621,   38.1870003,     4.125875
    622,   38.1870003, -0.971249998
    623,   38.1870003,  -6.06837511
    624,   38.1870003,   -10.949667
    625,   38.1870003,  -15.8309584
    626,   38.1870003,  -20.7122498
    627,   38.1870003,  -25.5935421
    628,   38.1870003,  -30.4748325
    629,   38.1870003,  -35.3561249
    630,   38.1870003,  -40.2374153
    631,   38.1870003,  -45.1187096
    632,   43.2360001,   44.9054985
    633,   43.2360001,   39.8110008
    634,   43.2360001,   34.7164993
    635,   43.2360001,   29.6219997
    636,   43.2360001,   24.5275002
    637,   43.2360001,   19.4330006
    638,   43.2360001,      14.3385
    639,   43.2360001,   9.24400043
    640,   43.2360001,   4.14949989
    641,   43.2360001, -0.944999993
    642,   43.2360001,  -6.03950024
    643,   43.2360001,  -10.9239998
    644,   43.2360001,  -15.8085003
    645,   43.2360001,  -20.6930008
    646,   43.2360001,  -25.5774994
    647,   43.2360001,  -30.4619999
    648,   43.2360001,  -35.3465004
    649,   43.2360001,   -40.230999
    650,   43.2360001,  -45.1155014
    651,   48.2849998,   44.9081268
    652,   48.2849998,   39.8162498
    653,   48.2849998,   34.7243767
    654,   48.2849998,   29.6324997
    655,   48.2849998,   24.5406246
    656,   48.2849998,   19.4487495
    657,   48.2849998,   14.3568754
    658,   48.2849998,   9.26500034
    659,   48.2849998,   4.17312479
    660,   48.2849998, -0.918749988
    661,   48.2849998,  -6.01062489
    662,   48.2849998,  -10.8983335
    663,   48.2849998,  -15.7860413
    664,   48.2849998,  -20.6737499
    665,   48.2849998,  -25.5614586
    666,   48.2849998,  -30.4491673
    667,   48.2849998,  -35.3368759
    668,   48.2849998,  -40.2245827
    669,   48.2849998,  -45.1122932
    670,   53.3339996,   44.9107513
    671,   53.3339996,   39.8214989
    672,   53.3339996,   34.7322502
    673,   53.3339996,   29.6429996
    674,   53.3339996,   24.5537491
    675,   53.3339996,   19.4645004
    676,   53.3339996,   14.3752499
    677,   53.3339996,   9.28600025
    678,   53.3339996,   4.19675016
    679,   53.3339996, -0.892499983
    680,   53.3339996,  -5.98175001
    681,   53.3339996,  -10.8726664
    682,   53.3339996,  -15.7635832
    683,   53.3339996,  -20.6544991
    684,   53.3339996,  -25.5454159
    685,   53.3339996,  -30.4363327
    686,   53.3339996,  -35.3272514
    687,   53.3339996,  -40.2181664
    688,   53.3339996,  -45.1090851
    689,   58.3829994,   44.9133759
    690,   58.3829994,   39.8267517
    691,   58.3829994,   34.7401237
    692,   58.3829994,   29.6534996
    693,   58.3829994,   24.5668755
    694,   58.3829994,   19.4802494
    695,   58.3829994,   14.3936253
    696,   58.3829994,   9.30700016
    697,   58.3829994,   4.22037506
    698,   58.3829994, -0.866249979
    699,   58.3829994,  -5.95287514
    700,   58.3829994,  -10.8470001
    701,   58.3829994,  -15.7411251
    702,   58.3829994,  -20.6352501
    703,   58.3829994,  -25.5293751
    704,   58.3829994,  -30.4235001
    705,   58.3829994,  -35.3176231
    706,   58.3829994,    -40.21175
    707,   58.3829994,  -45.1058731
    708,   63.4319992,   44.9160004
    709,   63.4319992,   39.8320007
    710,   63.4319992,   34.7480011
    711,   63.4319992,   29.6639996
    712,   63.4319992,   24.5799999
    713,   63.4319992,   19.4960003
    714,   63.4319992,   14.4119997
    715,   63.4319992,   9.32800007
    716,   63.4319992,   4.24399996
    717,   63.4319992, -0.839999974
    718,   63.4319992,  -5.92399979
    719,   63.4319992,  -10.8213329
    720,   63.4319992,   -15.718667
    721,   63.4319992,  -20.6159992
    722,   63.4319992,  -25.5133343
    723,   63.4319992,  -30.4106674
    724,   63.4319992,  -35.3079987
    725,   63.4319992,  -40.2053337
    726,   63.4319992,  -45.1026649
    727,   68.4810028,   44.9186249
    728,   68.4810028,   39.8372498
    729,   68.4810028,   34.7558746
    730,   68.4810028,   29.6744995
    731,   68.4810028,   24.5931244
    732,   68.4810028,   19.5117493
    733,   68.4810028,   14.4303751
    734,   68.4810028,   9.34899998
    735,   68.4810028,   4.26762486
    736,   68.4810028, -0.813750029
    737,   68.4810028,  -5.89512491
    738,   68.4810028,  -10.7956667
    739,   68.4810028,   -15.696208
    740,   68.4810028,  -20.5967503
    741,   68.4810028,  -25.4972916
    742,   68.4810028,  -30.3978329
    743,   68.4810028,  -35.2983742
    744,   68.4810028,  -40.1989174
    745,   68.4810028,  -45.0994568
    746,   73.5299988,   44.9212494
    747,   73.5299988,   39.8424988
    748,   73.5299988,   34.7637482
    749,   73.5299988,   29.6849995
    750,   73.5299988,   24.6062508
    751,   73.5299988,   19.5275002
    752,   73.5299988,   14.4487495
    753,   73.5299988,   9.36999989
    754,   73.5299988,   4.29125023
    755,   73.5299988, -0.787500024
    756,   73.5299988,  -5.86625004
    757,   73.5299988,  -10.7700005
    758,   73.5299988,  -15.6737499
    759,   73.5299988,  -20.5774994
    760,   73.5299988,  -25.4812508
    761,   73.5299988,  -30.3850002
    762,   73.5299988,  -35.2887497
    763,   73.5299988,  -40.1925011
    764,   73.5299988,  -45.0962486
    765,   78.5790024,   44.9238739
    766,   78.5790024,   39.8477516
    767,   78.5790024,   34.7716255
    768,   78.5790024,   29.6954994
    769,   78.5790024,   24.6193752
    770,   78.5790024,   19.5432491
    771,   78.5790024,   14.4671249
    772,   78.5790024,   9.39099979
    773,   78.5790024,   4.31487513
    774,   78.5790024, -0.761250019
    775,   78.5790024,  -5.83737516
    776,   78.5790024,  -10.7443333
    777,   78.5790024,  -15.6512918
    778,   78.5790024,  -20.5582504
    779,   78.5790024,  -25.4652081
    780,   78.5790024,  -30.3721676
    781,   78.5790024,  -35.2791252
    782,   78.5790024,  -40.1860847
    783,   78.5790024,  -45.0930405
    784,   83.6279984,   44.9264984
    785,   83.6279984,   39.8530006
    786,   83.6279984,   34.7794991
    787,   83.6279984,   29.7059994
    788,   83.6279984,   24.6324997
    789,   83.6279984,       19.559
    790,   83.6279984,   14.4855003
    791,   83.6279984,    9.4119997
    792,   83.6279984,   4.33850002
    793,   83.6279984, -0.735000014
    794,   83.6279984,  -5.80849981
    795,   83.6279984,   -10.718667
    796,   83.6279984,  -15.6288338
    797,   83.6279984,  -20.5389996
    798,   83.6279984,  -25.4491673
    799,   83.6279984,   -30.359333
    800,   83.6279984,  -35.2695007
    801,   83.6279984,  -40.1796684
    802,   83.6279984,  -45.0898323
    803,    88.677002,   44.9291267
    804,    88.677002,   39.8582497
    805,    88.677002,   34.7873764
    806,    88.677002,   29.7164993
    807,    88.677002,   24.6456242
    808,    88.677002,   19.5747509
    809,    88.677002,   14.5038748
    810,    88.677002,   9.43299961
    811,    88.677002,   4.36212492
    812,    88.677002,  -0.70875001
    813,    88.677002,  -5.77962494
    814,    88.677002,  -10.6929998
    815,    88.677002,  -15.6063747
    816,    88.677002,  -20.5197506
    817,    88.677002,  -25.4331245
    818,    88.677002,  -30.3465004
    819,    88.677002,  -35.2598763
    820,    88.677002,  -40.1732483
    821,    88.677002,  -45.0866241
    822,   93.7259979,   44.9317513
    823,   93.7259979,   39.8634987
    824,   93.7259979,   34.7952499
    825,   93.7259979,   29.7269993
    826,   93.7259979,   24.6587505
    827,   93.7259979,   19.5904999
    828,   93.7259979,   14.5222502
    829,   93.7259979,   9.45400047
    830,   93.7259979,   4.38574982
    831,   93.7259979, -0.682500005
    832,   93.7259979,  -5.75075006
    833,   93.7259979,  -10.6673336
    834,   93.7259979,  -15.5839167
    835,   93.7259979,  -20.5004997
    836,   93.7259979,  -25.4170837
    837,   93.7259979,  -30.3336658
    838,   93.7259979,  -35.2502518
    839,   93.7259979,   -40.166832
    840,   93.7259979,   -45.083416
    841,   98.7750015,   44.9343758
    842,   98.7750015,   39.8687515
    843,   98.7750015,   34.8031235
    844,   98.7750015,   29.7374992
    845,   98.7750015,    24.671875
    846,   98.7750015,   19.6062508
    847,   98.7750015,   14.5406246
    848,   98.7750015,   9.47500038
    849,   98.7750015,   4.40937519
    850,   98.7750015,     -0.65625
    851,   98.7750015,  -5.72187519
    852,   98.7750015,  -10.6416664
    853,   98.7750015,  -15.5614586
    854,   98.7750015,  -20.4812508
    855,   98.7750015,   -25.401041
    856,   98.7750015,  -30.3208332
    857,   98.7750015,  -35.2406235
    858,   98.7750015,  -40.1604156
    859,   98.7750015,  -45.0802078
    860,   103.823997,   44.9370003
    861,   103.823997,   39.8740005
    862,   103.823997,   34.8110008
    863,   103.823997,   29.7479992
    864,   103.823997,   24.6849995
    865,   103.823997,   19.6219997
    866,   103.823997,       14.559
    867,   103.823997,   9.49600029
    868,   103.823997,   4.43300009
    869,   103.823997, -0.629999995
    870,   103.823997,  -5.69299984
    871,   103.823997,  -10.6160002
    872,   103.823997,  -15.5389996
    873,   103.823997,  -20.4619999
    874,   103.823997,  -25.3850002
    875,   103.823997,  -30.3080006
    876,   103.823997,   -35.230999
    877,   103.823997,  -40.1539993
    878,   103.823997,  -45.0769997
    879,   108.873001,   44.9396248
    880,   108.873001,   39.8792496
    881,   108.873001,   34.8188744
    882,   108.873001,   29.7584991
    883,   108.873001,   24.6981258
    884,   108.873001,   19.6377506
    885,   108.873001,   14.5773754
    886,   108.873001,    9.5170002
    887,   108.873001,   4.45662498
    888,   108.873001,  -0.60374999
    889,   108.873001,  -5.66412497
    890,   108.873001,   -10.590333
    891,   108.873001,  -15.5165415
    892,   108.873001,  -20.4427509
    893,   108.873001,  -25.3689575
    894,   108.873001,   -30.295166
    895,   108.873001,  -35.2213745
    896,   108.873001,   -40.147583
    897,   108.873001,  -45.0737915
    898,   113.921997,   44.9422493
    899,   113.921997,   39.8844986
    900,   113.921997,   34.8267517
    901,   113.921997,   29.7689991
    902,   113.921997,   24.7112503
    903,   113.921997,   19.6534996
    904,   113.921997,   14.5957499
    905,   113.921997,   9.53800011
    906,   113.921997,   4.48024988
    907,   113.921997, -0.577499986
    908,   113.921997,  -5.63525009
    909,   113.921997,  -10.5646667
    910,   113.921997,  -15.4940834
    911,   113.921997,  -20.4235001
    912,   113.921997,  -25.3529167
    913,   113.921997,  -30.2823334
    914,   113.921997,    -35.21175
    915,   113.921997,  -40.1411667
    916,   113.921997,  -45.0705833
    917,   118.971001,   44.9448738
    918,   118.971001,   39.8897514
    919,   118.971001,   34.8346252
    920,   118.971001,   29.7794991
    921,   118.971001,   24.7243748
    922,   118.971001,   19.6692505
    923,   118.971001,   14.6141253
    924,   118.971001,   9.55900002
    925,   118.971001,   4.50387478
    926,   118.971001, -0.551249981
    927,   118.971001,  -5.60637522
    928,   118.971001,  -10.5389996
    929,   118.971001,  -15.4716253
    930,   118.971001,  -20.4042492
    931,   118.971001,  -25.3368759
    932,   118.971001,  -30.2695007
    933,   118.971001,  -35.2021255
    934,   118.971001,  -40.1347504
    935,   118.971001,  -45.0673752
    936,   124.019997,   44.9474983
    937,   124.019997,   39.8950005
    938,   124.019997,   34.8424988
    939,   124.019997,   29.7900009
    940,   124.019997,   24.7374992
    941,   124.019997,   19.6849995
    942,   124.019997,   14.6324997
    943,   124.019997,   9.57999992
    944,   124.019997,   4.52750015
    945,   124.019997, -0.524999976
    946,   124.019997,  -5.57749987
    947,   124.019997,  -10.5133333
    948,   124.019997,  -15.4491663
    949,   124.019997,  -20.3850002
    950,   124.019997,  -25.3208332
    951,   124.019997,  -30.2566662
    952,   124.019997,  -35.1925011
    953,   124.019997,   -40.128334
    954,   124.019997,   -45.064167
    955,      129.069,   44.9501266
    956,      129.069,   39.9002495
    957,      129.069,   34.8503761
    958,      129.069,   29.8005009
    959,      129.069,   24.7506256
    960,      129.069,   19.7007504
    961,      129.069,   14.6508751
    962,      129.069,   9.60099983
    963,      129.069,   4.55112505
    964,      129.069, -0.498750001
    965,      129.069,  -5.54862499
    966,      129.069,  -10.4876671
    967,      129.069,  -15.4267082
    968,      129.069,  -20.3657494
    969,      129.069,  -25.3047924
    970,      129.069,  -30.2438335
    971,      129.069,  -35.1828766
    972,      129.069,  -40.1219177
    973,      129.069,  -45.0609589
    974,   134.117996,   44.9527512
    975,   134.117996,   39.9054985
    976,   134.117996,   34.8582497
    977,   134.117996,   29.8110008
    978,   134.117996,   24.7637501
    979,   134.117996,   19.7164993
    980,   134.117996,   14.6692495
    981,   134.117996,   9.62199974
    982,   134.117996,   4.57474995
    983,   134.117996, -0.472499996
    984,   134.117996,  -5.51975012
    985,   134.117996,  -10.4619999
    986,   134.117996,  -15.4042501
    987,   134.117996,  -20.3465004
    988,   134.117996,  -25.2887497
    989,   134.117996,  -30.2310009
    990,   134.117996,  -35.1732483
    991,   134.117996,  -40.1155014
    992,   134.117996,  -45.0577507
    993,   139.167007,   44.9553757
    994,   139.167007,   39.9107513
    995,   139.167007,   34.8661232
    996,   139.167007,   29.8215008
    997,   139.167007,   24.7768745
    998,   139.167007,   19.7322502
    999,   139.167007,   14.6876249
   1000,   139.167007,   9.64299965
   1001,   139.167007,   4.59837484
   1002,   139.167007, -0.446249992
   1003,   139.167007,  -5.49087477
   1004,   139.167007,  -10.4363337
   1005,   139.167007,  -15.3817921
   1006,   139.167007,  -20.3272495
   1007,   139.167007,  -25.2727089
   1008,   139.167007,  -30.2181664
   1009,   139.167007,  -35.1636238
   1010,   139.167007,  -40.1090851
   1011,   139.167007,  -45.0545425
   1012,   144.216003,   44.9580002
   1013,   144.216003,   39.9160004
   1014,   144.216003,   34.8740005
   1015,   144.216003,   29.8320007
   1016,   144.216003,   24.7900009
   1017,   144.216003,   19.7479992
   1018,   144.216003,   14.7060003
   1019,   144.216003,   9.66399956
   1020,   144.216003,   4.62200022
   1021,   144.216003, -0.419999987
   1022,   144.216003,  -5.46199989
   1023,   144.216003,  -10.4106665
   1024,   144.216003,   -15.359333
   1025,   144.216003,  -20.3080006
   1026,   144.216003,  -25.2566662
   1027,   144.216003,  -30.2053337
   1028,   144.216003,  -35.1539993
   1029,   144.216003,  -40.1026649
   1030,   144.216003,  -45.0513344
   1031,   149.264999,   44.9606247
   1032,   149.264999,   39.9212494
   1033,   149.264999,   34.8818741
   1034,   149.264999,   29.8425007
   1035,   149.264999,   24.8031254
   1036,   149.264999,   19.7637501
   1037,   149.264999,   14.7243748
   1038,   149.264999,   9.68500042
   1039,   149.264999,   4.64562511
   1040,   149.264999, -0.393750012
   1041,   149.264999,  -5.43312502
   1042,   149.264999,  -10.3850002
   1043,   149.264999,   -15.336875
   1044,   149.264999,  -20.2887497
   1045,   149.264999,  -25.2406254
   1046,   149.264999,  -30.1924992
   1047,   149.264999,  -35.1443748
   1048,   149.264999,  -40.0962486
   1049,   149.264999,  -45.0481262
   1050,   154.313995,   44.9632492
   1051,   154.313995,   39.9264984
   1052,   154.313995,   34.8897514
   1053,   154.313995,   29.8530006
   1054,   154.313995,   24.8162498
   1055,   154.313995,   19.7794991
   1056,   154.313995,   14.7427502
   1057,   154.313995,   9.70600033
   1058,   154.313995,   4.66925001
   1059,   154.313995, -0.367500007
   1060,   154.313995,  -5.40425014
   1061,   154.313995,   -10.359333
   1062,   154.313995,  -15.3144169
   1063,   154.313995,  -20.2695007
   1064,   154.313995,  -25.2245827
   1065,   154.313995,  -30.1796665
   1066,   154.313995,  -35.1347504
   1067,   154.313995,  -40.0898323
   1068,   154.313995,  -45.0449181
   1069,   159.363007,   44.9658737
   1070,   159.363007,   39.9317513
   1071,   159.363007,    34.897625
   1072,   159.363007,   29.8635006
   1073,   159.363007,   24.8293743
   1074,   159.363007,   19.7952499
   1075,   159.363007,   14.7611246
   1076,   159.363007,   9.72700024
   1077,   159.363007,   4.69287491
   1078,   159.363007, -0.341250002
   1079,   159.363007,  -5.37537479
   1080,   159.363007,  -10.3336668
   1081,   159.363007,  -15.2919588
   1082,   159.363007,  -20.2502499
   1083,   159.363007,  -25.2085419
   1084,   159.363007,  -30.1668339
   1085,   159.363007,  -35.1251259
   1086,   159.363007,   -40.083416
   1087,   159.363007,  -45.0417099
   1088,   164.412003,   44.9684982
   1089,   164.412003,   39.9370003
   1090,   164.412003,   34.9054985
   1091,   164.412003,   29.8740005
   1092,   164.412003,   24.8425007
   1093,   164.412003,   19.8110008
   1094,   164.412003,      14.7795
   1095,   164.412003,   9.74800014
   1096,   164.412003,   4.71649981
   1097,   164.412003, -0.314999998
   1098,   164.412003,  -5.34649992
   1099,   164.412003,  -10.3079996
   1100,   164.412003,  -15.2694998
   1101,   164.412003,  -20.2310009
   1102,   164.412003,  -25.1924992
   1103,   164.412003,  -30.1539993
   1104,   164.412003,  -35.1155014
   1105,   164.412003,  -40.0769997
   1106,   164.412003,  -45.0385017
   1107,   169.460999,   44.9711266
   1108,   169.460999,   39.9422493
   1109,   169.460999,   34.9133759
   1110,   169.460999,   29.8845005
   1111,   169.460999,   24.8556252
   1112,   169.460999,   19.8267498
   1113,   169.460999,   14.7978754
   1114,   169.460999,   9.76900005
   1115,   169.460999,   4.74012518
   1116,   169.460999, -0.288749993
   1117,   169.460999,  -5.31762505
   1118,   169.460999,  -10.2823334
   1119,   169.460999,  -15.2470417
   1120,   169.460999,    -20.21175
   1121,   169.460999,  -25.1764584
   1122,   169.460999,  -30.1411667
   1123,   169.460999,  -35.1058731
   1124,   169.460999,  -40.0705833
   1125,   169.460999,  -45.0352898
   1126,   174.509995,   44.9737511
   1127,   174.509995,   39.9474983
   1128,   174.509995,   34.9212494
   1129,   174.509995,   29.8950005
   1130,   174.509995,   24.8687496
   1131,   174.509995,   19.8425007
   1132,   174.509995,   14.8162498
   1133,   174.509995,   9.78999996
   1134,   174.509995,   4.76375008
   1135,   174.509995, -0.262499988
   1136,   174.509995,  -5.28875017
   1137,   174.509995,  -10.2566671
   1138,   174.509995,  -15.2245836
   1139,   174.509995,  -20.1924992
   1140,   174.509995,  -25.1604176
   1141,   174.509995,   -30.128334
   1142,   174.509995,  -35.0962486
   1143,   174.509995,   -40.064167
   1144,   174.509995,  -45.0320816
   1145,   179.559006,   44.9763756
   1146,   179.559006,   39.9527512
   1147,   179.559006,   34.9291267
   1148,   179.559006,   29.9055004
   1149,   179.559006,   24.8818741
   1150,   179.559006,   19.8582497
   1151,   179.559006,   14.8346252
   1152,   179.559006,   9.81099987
   1153,   179.559006,   4.78737497
   1154,   179.559006, -0.236249998
   1155,   179.559006,  -5.25987482
   1156,   179.559006,  -10.2309999
   1157,   179.559006,  -15.2021246
   1158,   179.559006,  -20.1732502
   1159,   179.559006,  -25.1443748
   1160,   179.559006,  -30.1154995
   1161,   179.559006,  -35.0866241
   1162,   179.559006,  -40.0577507
   1163,   179.559006,  -45.0288734
   1164,   184.608002,   44.9790001
   1165,   184.608002,   39.9580002
   1166,   184.608002,   34.9370003
   1167,   184.608002,   29.9160004
   1168,   184.608002,   24.8950005
   1169,   184.608002,   19.8740005
   1170,   184.608002,   14.8529997
   1171,   184.608002,   9.83199978
   1172,   184.608002,   4.81099987
   1173,   184.608002, -0.209999993
   1174,   184.608002,  -5.23099995
   1175,   184.608002,  -10.2053337
   1176,   184.608002,  -15.1796665
   1177,   184.608002,  -20.1539993
   1178,   184.608002,   -25.128334
   1179,   184.608002,  -30.1026669
   1180,   184.608002,  -35.0769997
   1181,   184.608002,  -40.0513344
   1182,   184.608002,  -45.0256653
   1183,   189.656998,   44.9816246
   1184,   189.656998,   39.9632492
   1185,   189.656998,   34.9448738
   1186,   189.656998,   29.9265003
   1187,   189.656998,   24.9081249
   1188,   189.656998,   19.8897495
   1189,   189.656998,   14.8713751
   1190,   189.656998,   9.85299969
   1191,   189.656998,   4.83462477
   1192,   189.656998, -0.183750004
   1193,   189.656998,  -5.20212507
   1194,   189.656998,  -10.1796665
   1195,   189.656998,  -15.1572084
   1196,   189.656998,  -20.1347504
   1197,   189.656998,  -25.1122913
   1198,   189.656998,  -30.0898342
   1199,   189.656998,  -35.0673752
   1200,   189.656998,  -40.0449181
   1201,   189.656998,  -45.0224571
   1202,   194.705994,   44.9842491
   1203,   194.705994,   39.9684982
   1204,   194.705994,   34.9527512
   1205,   194.705994,   29.9370003
   1206,   194.705994,   24.9212494
   1207,   194.705994,   19.9055004
   1208,   194.705994,   14.8897495
   1209,   194.705994,    9.8739996
   1210,   194.705994,   4.85825014
   1211,   194.705994, -0.157499999
   1212,   194.705994,   -5.1732502
   1213,   194.705994,  -10.1540003
   1214,   194.705994,  -15.1347504
   1215,   194.705994,  -20.1154995
   1216,   194.705994,  -25.0962505
   1217,   194.705994,  -30.0769997
   1218,   194.705994,  -35.0577507
   1219,   194.705994,  -40.0385017
   1220,   194.705994,   -45.019249
   1221,   199.755005,   44.9868736
   1222,   199.755005,   39.9737511
   1223,   199.755005,   34.9606247
   1224,   199.755005,   29.9475002
   1225,   199.755005,   24.9343758
   1226,   199.755005,   19.9212494
   1227,   199.755005,   14.9081249
   1228,   199.755005,   9.89500046
   1229,   199.755005,   4.88187504
   1230,   199.755005, -0.131249994
   1231,   199.755005,  -5.14437485
   1232,   199.755005,  -10.1283331
   1233,   199.755005,  -15.1122913
   1234,   199.755005,  -20.0962505
   1235,   199.755005,  -25.0802078
   1236,   199.755005,   -30.064167
   1237,   199.755005,  -35.0481262
   1238,   199.755005,  -40.0320816
   1239,   199.755005,  -45.0160408
   1240,   204.804001,   44.9894981
   1241,   204.804001,   39.9790001
   1242,   204.804001,   34.9684982
   1243,   204.804001,   29.9580002
   1244,   204.804001,   24.9475002
   1245,   204.804001,   19.9370003
   1246,   204.804001,   14.9265003
   1247,   204.804001,   9.91600037
   1248,   204.804001,   4.90549994
   1249,   204.804001, -0.104999997
   1250,   204.804001,  -5.11549997
   1251,   204.804001,  -10.1026669
   1252,   204.804001,  -15.0898333
   1253,   204.804001,  -20.0769997
   1254,   204.804001,   -25.064167
   1255,   204.804001,  -30.0513325
   1256,   204.804001,  -35.0385017
   1257,   204.804001,  -40.0256653
   1258,   204.804001,  -45.0128326
   1259,   209.852997,   44.9921265
   1260,   209.852997,   39.9842491
   1261,   209.852997,   34.9763756
   1262,   209.852997,   29.9685001
   1263,   209.852997,   24.9606247
   1264,   209.852997,   19.9527493
   1265,   209.852997,   14.9448748
   1266,   209.852997,   9.93700027
   1267,   209.852997,   4.92912483
   1268,   209.852997, -0.0787499994
   1269,   209.852997,   -5.0866251
   1270,   209.852997,  -10.0769997
   1271,   209.852997,  -15.0673752
   1272,   209.852997,  -20.0577507
   1273,   209.852997,  -25.0481243
   1274,   209.852997,  -30.0384998
   1275,   209.852997,  -35.0288734
   1276,   209.852997,   -40.019249
   1277,   209.852997,  -45.0096245
   1278,   214.901993,    44.994751
   1279,   214.901993,   39.9894981
   1280,   214.901993,   34.9842491
   1281,   214.901993,   29.9790001
   1282,   214.901993,   24.9737492
   1283,   214.901993,   19.9685001
   1284,   214.901993,   14.9632502
   1285,   214.901993,   9.95800018
   1286,   214.901993,   4.95275021
   1287,   214.901993, -0.0524999984
   1288,   214.901993,  -5.05775023
   1289,   214.901993,  -10.0513334
   1290,   214.901993,  -15.0449171
   1291,   214.901993,  -20.0384998
   1292,   214.901993,  -25.0320835
   1293,   214.901993,  -30.0256672
   1294,   214.901993,   -35.019249
   1295,   214.901993,  -40.0128326
   1296,   214.901993,  -45.0064163
   1297,   219.951004,   44.9973755
   1298,   219.951004,    39.994751
   1299,   219.951004,   34.9921265
   1300,   219.951004,      29.9895
   1301,   219.951004,   24.9868755
   1302,   219.951004,   19.9842491
   1303,   219.951004,   14.9816246
   1304,   219.951004,   9.97900009
   1305,   219.951004,    4.9763751
   1306,   219.951004, -0.0262499992
   1307,   219.951004,  -5.02887487
   1308,   219.951004,  -10.0256662
   1309,   219.951004,  -15.0224581
   1310,   219.951004,  -20.0192509
   1311,   219.951004,  -25.0160408
   1312,   219.951004,  -30.0128326
   1313,   219.951004,  -35.0096245
   1314,   219.951004,  -40.0064163
   1315,   219.951004,  -45.0032082
   1316,  -28.0890007,  -45.1251259
   1317,  -28.0890007,  -40.2502518
   1318,  -28.0890007,  -35.3753738
   1319,  -28.0890007,  -30.5004997
   1320,  -28.0890007,  -25.6256256
   1321,  -28.0890007,  -20.7507496
   1322,  -28.0890007,  -15.8758755
   1323,  -28.0890007,  -11.0010004
   1324,  -28.0890007,  -6.12612486
   1325,  -28.0890007,  -1.02374995
   1326,  -28.0890007,    4.0786252
   1327,  -28.0890007,   9.18099976
   1328,  -28.0890007,   14.2833748
   1329,  -28.0890007,   19.3857498
   1330,  -28.0890007,   24.4881248
   1331,  -28.0890007,   29.5904999
   1332,  -28.0890007,   34.6928749
   1333,  -28.0890007,   39.7952499
   1334,  -28.0890007,    44.897625
   1335,  -33.1380005,  -45.1219177
   1336,  -33.1380005,  -40.2438316
   1337,  -33.1380005,  -35.3657494
   1338,  -33.1380005,  -30.4876671
   1339,  -33.1380005,  -25.6095829
   1340,  -33.1380005,  -20.7315006
   1341,  -33.1380005,  -15.8534164
   1342,  -33.1380005,  -10.9753332
   1343,  -33.1380005,  -6.09724998
   1344,  -33.1380005, -0.997500002
   1345,  -33.1380005,    4.1022501
   1346,  -33.1380005,   9.20199966
   1347,  -33.1380005,   14.3017502
   1348,  -33.1380005,   19.4015007
   1349,  -33.1380005,   24.5012493
   1350,  -33.1380005,   29.6009998
   1351,  -33.1380005,   34.7007484
   1352,  -33.1380005,    39.800499
   1353,  -33.1380005,   44.9002495
   1354,  -38.1870003,  -45.1187096
   1355,  -38.1870003,  -40.2374153
   1356,  -38.1870003,  -35.3561249
   1357,  -38.1870003,  -30.4748325
   1358,  -38.1870003,  -25.5935421
   1359,  -38.1870003,  -20.7122498
   1360,  -38.1870003,  -15.8309584
   1361,  -38.1870003,   -10.949667
   1362,  -38.1870003,  -6.06837511
   1363,  -38.1870003, -0.971249998
   1364,  -38.1870003,     4.125875
   1365,  -38.1870003,   9.22299957
   1366,  -38.1870003,   14.3201246
   1367,  -38.1870003,   19.4172497
   1368,  -38.1870003,   24.5143757
   1369,  -38.1870003,   29.6114998
   1370,  -38.1870003,   34.7086258
   1371,  -38.1870003,   39.8057518
   1372,  -38.1870003,    44.902874
   1373,  -43.2360001,  -45.1155014
   1374,  -43.2360001,   -40.230999
   1375,  -43.2360001,  -35.3465004
   1376,  -43.2360001,  -30.4619999
   1377,  -43.2360001,  -25.5774994
   1378,  -43.2360001,  -20.6930008
   1379,  -43.2360001,  -15.8085003
   1380,  -43.2360001,  -10.9239998
   1381,  -43.2360001,  -6.03950024
   1382,  -43.2360001, -0.944999993
   1383,  -43.2360001,   4.14949989
   1384,  -43.2360001,   9.24400043
   1385,  -43.2360001,      14.3385
   1386,  -43.2360001,   19.4330006
   1387,  -43.2360001,   24.5275002
   1388,  -43.2360001,   29.6219997
   1389,  -43.2360001,   34.7164993
   1390,  -43.2360001,   39.8110008
   1391,  -43.2360001,   44.9054985
   1392,  -48.2849998,  -45.1122932
   1393,  -48.2849998,  -40.2245827
   1394,  -48.2849998,  -35.3368759
   1395,  -48.2849998,  -30.4491673
   1396,  -48.2849998,  -25.5614586
   1397,  -48.2849998,  -20.6737499
   1398,  -48.2849998,  -15.7860413
   1399,  -48.2849998,  -10.8983335
   1400,  -48.2849998,  -6.01062489
   1401,  -48.2849998, -0.918749988
   1402,  -48.2849998,   4.17312479
   1403,  -48.2849998,   9.26500034
   1404,  -48.2849998,   14.3568754
   1405,  -48.2849998,   19.4487495
   1406,  -48.2849998,   24.5406246
   1407,  -48.2849998,   29.6324997
   1408,  -48.2849998,   34.7243767
   1409,  -48.2849998,   39.8162498
   1410,  -48.2849998,   44.9081268
   1411,  -53.3339996,  -45.1090851
   1412,  -53.3339996,  -40.2181664
   1413,  -53.3339996,  -35.3272514
   1414,  -53.3339996,  -30.4363327
   1415,  -53.3339996,  -25.5454159
   1416,  -53.3339996,  -20.6544991
   1417,  -53.3339996,  -15.7635832
   1418,  -53.3339996,  -10.8726664
   1419,  -53.3339996,  -5.98175001
   1420,  -53.3339996, -0.892499983
   1421,  -53.3339996,   4.19675016
   1422,  -53.3339996,   9.28600025
   1423,  -53.3339996,   14.3752499
   1424,  -53.3339996,   19.4645004
   1425,  -53.3339996,   24.5537491
   1426,  -53.3339996,   29.6429996
   1427,  -53.3339996,   34.7322502
   1428,  -53.3339996,   39.8214989
   1429,  -53.3339996,   44.9107513
   1430,  -58.3829994,  -45.1058731
   1431,  -58.3829994,    -40.21175
   1432,  -58.3829994,  -35.3176231
   1433,  -58.3829994,  -30.4235001
   1434,  -58.3829994,  -25.5293751
   1435,  -58.3829994,  -20.6352501
   1436,  -58.3829994,  -15.7411251
   1437,  -58.3829994,  -10.8470001
   1438,  -58.3829994,  -5.95287514
   1439,  -58.3829994, -0.866249979
   1440,  -58.3829994,   4.22037506
   1441,  -58.3829994,   9.30700016
   1442,  -58.3829994,   14.3936253
   1443,  -58.3829994,   19.4802494
   1444,  -58.3829994,   24.5668755
   1445,  -58.3829994,   29.6534996
   1446,  -58.3829994,   34.7401237
   1447,  -58.3829994,   39.8267517
   1448,  -58.3829994,   44.9133759
   1449,  -63.4319992,  -45.1026649
   1450,  -63.4319992,  -40.2053337
   1451,  -63.4319992,  -35.3079987
   1452,  -63.4319992,  -30.4106674
   1453,  -63.4319992,  -25.5133343
   1454,  -63.4319992,  -20.6159992
   1455,  -63.4319992,   -15.718667
   1456,  -63.4319992,  -10.8213329
   1457,  -63.4319992,  -5.92399979
   1458,  -63.4319992, -0.839999974
   1459,  -63.4319992,   4.24399996
   1460,  -63.4319992,   9.32800007
   1461,  -63.4319992,   14.4119997
   1462,  -63.4319992,   19.4960003
   1463,  -63.4319992,   24.5799999
   1464,  -63.4319992,   29.6639996
   1465,  -63.4319992,   34.7480011
   1466,  -63.4319992,   39.8320007
   1467,  -63.4319992,   44.9160004
   1468,  -68.4810028,  -45.0994568
   1469,  -68.4810028,  -40.1989174
   1470,  -68.4810028,  -35.2983742
   1471,  -68.4810028,  -30.3978329
   1472,  -68.4810028,  -25.4972916
   1473,  -68.4810028,  -20.5967503
   1474,  -68.4810028,   -15.696208
   1475,  -68.4810028,  -10.7956667
   1476,  -68.4810028,  -5.89512491
   1477,  -68.4810028, -0.813750029
   1478,  -68.4810028,   4.26762486
   1479,  -68.4810028,   9.34899998
   1480,  -68.4810028,   14.4303751
   1481,  -68.4810028,   19.5117493
   1482,  -68.4810028,   24.5931244
   1483,  -68.4810028,   29.6744995
   1484,  -68.4810028,   34.7558746
   1485,  -68.4810028,   39.8372498
   1486,  -68.4810028,   44.9186249
   1487,  -73.5299988,  -45.0962486
   1488,  -73.5299988,  -40.1925011
   1489,  -73.5299988,  -35.2887497
   1490,  -73.5299988,  -30.3850002
   1491,  -73.5299988,  -25.4812508
   1492,  -73.5299988,  -20.5774994
   1493,  -73.5299988,  -15.6737499
   1494,  -73.5299988,  -10.7700005
   1495,  -73.5299988,  -5.86625004
   1496,  -73.5299988, -0.787500024
   1497,  -73.5299988,   4.29125023
   1498,  -73.5299988,   9.36999989
   1499,  -73.5299988,   14.4487495
   1500,  -73.5299988,   19.5275002
   1501,  -73.5299988,   24.6062508
   1502,  -73.5299988,   29.6849995
   1503,  -73.5299988,   34.7637482
   1504,  -73.5299988,   39.8424988
   1505,  -73.5299988,   44.9212494
   1506,  -78.5790024,  -45.0930405
   1507,  -78.5790024,  -40.1860847
   1508,  -78.5790024,  -35.2791252
   1509,  -78.5790024,  -30.3721676
   1510,  -78.5790024,  -25.4652081
   1511,  -78.5790024,  -20.5582504
   1512,  -78.5790024,  -15.6512918
   1513,  -78.5790024,  -10.7443333
   1514,  -78.5790024,  -5.83737516
   1515,  -78.5790024, -0.761250019
   1516,  -78.5790024,   4.31487513
   1517,  -78.5790024,   9.39099979
   1518,  -78.5790024,   14.4671249
   1519,  -78.5790024,   19.5432491
   1520,  -78.5790024,   24.6193752
   1521,  -78.5790024,   29.6954994
   1522,  -78.5790024,   34.7716255
   1523,  -78.5790024,   39.8477516
   1524,  -78.5790024,   44.9238739
   1525,  -83.6279984,  -45.0898323
   1526,  -83.6279984,  -40.1796684
   1527,  -83.6279984,  -35.2695007
   1528,  -83.6279984,   -30.359333
   1529,  -83.6279984,  -25.4491673
   1530,  -83.6279984,  -20.5389996
   1531,  -83.6279984,  -15.6288338
   1532,  -83.6279984,   -10.718667
   1533,  -83.6279984,  -5.80849981
   1534,  -83.6279984, -0.735000014
   1535,  -83.6279984,   4.33850002
   1536,  -83.6279984,    9.4119997
   1537,  -83.6279984,   14.4855003
   1538,  -83.6279984,       19.559
   1539,  -83.6279984,   24.6324997
   1540,  -83.6279984,   29.7059994
   1541,  -83.6279984,   34.7794991
   1542,  -83.6279984,   39.8530006
   1543,  -83.6279984,   44.9264984
   1544,   -88.677002,  -45.0866241
   1545,   -88.677002,  -40.1732483
   1546,   -88.677002,  -35.2598763
   1547,   -88.677002,  -30.3465004
   1548,   -88.677002,  -25.4331245
   1549,   -88.677002,  -20.5197506
   1550,   -88.677002,  -15.6063747
   1551,   -88.677002,  -10.6929998
   1552,   -88.677002,  -5.77962494
   1553,   -88.677002,  -0.70875001
   1554,   -88.677002,   4.36212492
   1555,   -88.677002,   9.43299961
   1556,   -88.677002,   14.5038748
   1557,   -88.677002,   19.5747509
   1558,   -88.677002,   24.6456242
   1559,   -88.677002,   29.7164993
   1560,   -88.677002,   34.7873764
   1561,   -88.677002,   39.8582497
   1562,   -88.677002,   44.9291267
   1563,  -93.7259979,   -45.083416
   1564,  -93.7259979,   -40.166832
   1565,  -93.7259979,  -35.2502518
   1566,  -93.7259979,  -30.3336658
   1567,  -93.7259979,  -25.4170837
   1568,  -93.7259979,  -20.5004997
   1569,  -93.7259979,  -15.5839167
   1570,  -93.7259979,  -10.6673336
   1571,  -93.7259979,  -5.75075006
   1572,  -93.7259979, -0.682500005
   1573,  -93.7259979,   4.38574982
   1574,  -93.7259979,   9.45400047
   1575,  -93.7259979,   14.5222502
   1576,  -93.7259979,   19.5904999
   1577,  -93.7259979,   24.6587505
   1578,  -93.7259979,   29.7269993
   1579,  -93.7259979,   34.7952499
   1580,  -93.7259979,   39.8634987
   1581,  -93.7259979,   44.9317513
   1582,  -98.7750015,  -45.0802078
   1583,  -98.7750015,  -40.1604156
   1584,  -98.7750015,  -35.2406235
   1585,  -98.7750015,  -30.3208332
   1586,  -98.7750015,   -25.401041
   1587,  -98.7750015,  -20.4812508
   1588,  -98.7750015,  -15.5614586
   1589,  -98.7750015,  -10.6416664
   1590,  -98.7750015,  -5.72187519
   1591,  -98.7750015,     -0.65625
   1592,  -98.7750015,   4.40937519
   1593,  -98.7750015,   9.47500038
   1594,  -98.7750015,   14.5406246
   1595,  -98.7750015,   19.6062508
   1596,  -98.7750015,    24.671875
   1597,  -98.7750015,   29.7374992
   1598,  -98.7750015,   34.8031235
   1599,  -98.7750015,   39.8687515
   1600,  -98.7750015,   44.9343758
   1601,  -103.823997,  -45.0769997
   1602,  -103.823997,  -40.1539993
   1603,  -103.823997,   -35.230999
   1604,  -103.823997,  -30.3080006
   1605,  -103.823997,  -25.3850002
   1606,  -103.823997,  -20.4619999
   1607,  -103.823997,  -15.5389996
   1608,  -103.823997,  -10.6160002
   1609,  -103.823997,  -5.69299984
   1610,  -103.823997, -0.629999995
   1611,  -103.823997,   4.43300009
   1612,  -103.823997,   9.49600029
   1613,  -103.823997,       14.559
   1614,  -103.823997,   19.6219997
   1615,  -103.823997,   24.6849995
   1616,  -103.823997,   29.7479992
   1617,  -103.823997,   34.8110008
   1618,  -103.823997,   39.8740005
   1619,  -103.823997,   44.9370003
   1620,  -108.873001,  -45.0737915
   1621,  -108.873001,   -40.147583
   1622,  -108.873001,  -35.2213745
   1623,  -108.873001,   -30.295166
   1624,  -108.873001,  -25.3689575
   1625,  -108.873001,  -20.4427509
   1626,  -108.873001,  -15.5165415
   1627,  -108.873001,   -10.590333
   1628,  -108.873001,  -5.66412497
   1629,  -108.873001,  -0.60374999
   1630,  -108.873001,   4.45662498
   1631,  -108.873001,    9.5170002
   1632,  -108.873001,   14.5773754
   1633,  -108.873001,   19.6377506
   1634,  -108.873001,   24.6981258
   1635,  -108.873001,   29.7584991
   1636,  -108.873001,   34.8188744
   1637,  -108.873001,   39.8792496
   1638,  -108.873001,   44.9396248
   1639,  -113.921997,  -45.0705833
   1640,  -113.921997,  -40.1411667
   1641,  -113.921997,    -35.21175
   1642,  -113.921997,  -30.2823334
   1643,  -113.921997,  -25.3529167
   1644,  -113.921997,  -20.4235001
   1645,  -113.921997,  -15.4940834
   1646,  -113.921997,  -10.5646667
   1647,  -113.921997,  -5.63525009
   1648,  -113.921997, -0.577499986
   1649,  -113.921997,   4.48024988
   1650,  -113.921997,   9.53800011
   1651,  -113.921997,   14.5957499
   1652,  -113.921997,   19.6534996
   1653,  -113.921997,   24.7112503
   1654,  -113.921997,   29.7689991
   1655,  -113.921997,   34.8267517
   1656,  -113.921997,   39.8844986
   1657,  -113.921997,   44.9422493
   1658,  -118.971001,  -45.0673752
   1659,  -118.971001,  -40.1347504
   1660,  -118.971001,  -35.2021255
   1661,  -118.971001,  -30.2695007
   1662,  -118.971001,  -25.3368759
   1663,  -118.971001,  -20.4042492
   1664,  -118.971001,  -15.4716253
   1665,  -118.971001,  -10.5389996
   1666,  -118.971001,  -5.60637522
   1667,  -118.971001, -0.551249981
   1668,  -118.971001,   4.50387478
   1669,  -118.971001,   9.55900002
   1670,  -118.971001,   14.6141253
   1671,  -118.971001,   19.6692505
   1672,  -118.971001,   24.7243748
   1673,  -118.971001,   29.7794991
   1674,  -118.971001,   34.8346252
   1675,  -118.971001,   39.8897514
   1676,  -118.971001,   44.9448738
   1677,  -124.019997,   -45.064167
   1678,  -124.019997,   -40.128334
   1679,  -124.019997,  -35.1925011
   1680,  -124.019997,  -30.2566662
   1681,  -124.019997,  -25.3208332
   1682,  -124.019997,  -20.3850002
   1683,  -124.019997,  -15.4491663
   1684,  -124.019997,  -10.5133333
   1685,  -124.019997,  -5.57749987
   1686,  -124.019997, -0.524999976
   1687,  -124.019997,   4.52750015
   1688,  -124.019997,   9.57999992
   1689,  -124.019997,   14.6324997
   1690,  -124.019997,   19.6849995
   1691,  -124.019997,   24.7374992
   1692,  -124.019997,   29.7900009
   1693,  -124.019997,   34.8424988
   1694,  -124.019997,   39.8950005
   1695,  -124.019997,   44.9474983
   1696,     -129.069,  -45.0609589
   1697,     -129.069,  -40.1219177
   1698,     -129.069,  -35.1828766
   1699,     -129.069,  -30.2438335
   1700,     -129.069,  -25.3047924
   1701,     -129.069,  -20.3657494
   1702,     -129.069,  -15.4267082
   1703,     -129.069,  -10.4876671
   1704,     -129.069,  -5.54862499
   1705,     -129.069, -0.498750001
   1706,     -129.069,   4.55112505
   1707,     -129.069,   9.60099983
   1708,     -129.069,   14.6508751
   1709,     -129.069,   19.7007504
   1710,     -129.069,   24.7506256
   1711,     -129.069,   29.8005009
   1712,     -129.069,   34.8503761
   1713,     -129.069,   39.9002495
   1714,     -129.069,   44.9501266
   1715,  -134.117996,  -45.0577507
   1716,  -134.117996,  -40.1155014
   1717,  -134.117996,  -35.1732483
   1718,  -134.117996,  -30.2310009
   1719,  -134.117996,  -25.2887497
   1720,  -134.117996,  -20.3465004
   1721,  -134.117996,  -15.4042501
   1722,  -134.117996,  -10.4619999
   1723,  -134.117996,  -5.51975012
   1724,  -134.117996, -0.472499996
   1725,  -134.117996,   4.57474995
   1726,  -134.117996,   9.62199974
   1727,  -134.117996,   14.6692495
   1728,  -134.117996,   19.7164993
   1729,  -134.117996,   24.7637501
   1730,  -134.117996,   29.8110008
   1731,  -134.117996,   34.8582497
   1732,  -134.117996,   39.9054985
   1733,  -134.117996,   44.9527512
   1734,  -139.167007,  -45.0545425
   1735,  -139.167007,  -40.1090851
   1736,  -139.167007,  -35.1636238
   1737,  -139.167007,  -30.2181664
   1738,  -139.167007,  -25.2727089
   1739,  -139.167007,  -20.3272495
   1740,  -139.167007,  -15.3817921
   1741,  -139.167007,  -10.4363337
   1742,  -139.167007,  -5.49087477
   1743,  -139.167007, -0.446249992
   1744,  -139.167007,   4.59837484
   1745,  -139.167007,   9.64299965
   1746,  -139.167007,   14.6876249
   1747,  -139.167007,   19.7322502
   1748,  -139.167007,   24.7768745
   1749,  -139.167007,   29.8215008
   1750,  -139.167007,   34.8661232
   1751,  -139.167007,   39.9107513
   1752,  -139.167007,   44.9553757
   1753,  -144.216003,  -45.0513344
   1754,  -144.216003,  -40.1026649
   1755,  -144.216003,  -35.1539993
   1756,  -144.216003,  -30.2053337
   1757,  -144.216003,  -25.2566662
   1758,  -144.216003,  -20.3080006
   1759,  -144.216003,   -15.359333
   1760,  -144.216003,  -10.4106665
   1761,  -144.216003,  -5.46199989
   1762,  -144.216003, -0.419999987
   1763,  -144.216003,   4.62200022
   1764,  -144.216003,   9.66399956
   1765,  -144.216003,   14.7060003
   1766,  -144.216003,   19.7479992
   1767,  -144.216003,   24.7900009
   1768,  -144.216003,   29.8320007
   1769,  -144.216003,   34.8740005
   1770,  -144.216003,   39.9160004
   1771,  -144.216003,   44.9580002
   1772,  -149.264999,  -45.0481262
   1773,  -149.264999,  -40.0962486
   1774,  -149.264999,  -35.1443748
   1775,  -149.264999,  -30.1924992
   1776,  -149.264999,  -25.2406254
   1777,  -149.264999,  -20.2887497
   1778,  -149.264999,   -15.336875
   1779,  -149.264999,  -10.3850002
   1780,  -149.264999,  -5.43312502
   1781,  -149.264999, -0.393750012
   1782,  -149.264999,   4.64562511
   1783,  -149.264999,   9.68500042
   1784,  -149.264999,   14.7243748
   1785,  -149.264999,   19.7637501
   1786,  -149.264999,   24.8031254
   1787,  -149.264999,   29.8425007
   1788,  -149.264999,   34.8818741
   1789,  -149.264999,   39.9212494
   1790,  -149.264999,   44.9606247
   1791,  -154.313995,  -45.0449181
   1792,  -154.313995,  -40.0898323
   1793,  -154.313995,  -35.1347504
   1794,  -154.313995,  -30.1796665
   1795,  -154.313995,  -25.2245827
   1796,  -154.313995,  -20.2695007
   1797,  -154.313995,  -15.3144169
   1798,  -154.313995,   -10.359333
   1799,  -154.313995,  -5.40425014
   1800,  -154.313995, -0.367500007
   1801,  -154.313995,   4.66925001
   1802,  -154.313995,   9.70600033
   1803,  -154.313995,   14.7427502
   1804,  -154.313995,   19.7794991
   1805,  -154.313995,   24.8162498
   1806,  -154.313995,   29.8530006
   1807,  -154.313995,   34.8897514
   1808,  -154.313995,   39.9264984
   1809,  -154.313995,   44.9632492
   1810,  -159.363007,  -45.0417099
   1811,  -159.363007,   -40.083416
   1812,  -159.363007,  -35.1251259
   1813,  -159.363007,  -30.1668339
   1814,  -159.363007,  -25.2085419
   1815,  -159.363007,  -20.2502499
   1816,  -159.363007,  -15.2919588
   1817,  -159.363007,  -10.3336668
   1818,  -159.363007,  -5.37537479
   1819,  -159.363007, -0.341250002
   1820,  -159.363007,   4.69287491
   1821,  -159.363007,   9.72700024
   1822,  -159.363007,   14.7611246
   1823,  -159.363007,   19.7952499
   1824,  -159.363007,   24.8293743
   1825,  -159.363007,   29.8635006
   1826,  -159.363007,    34.897625
   1827,  -159.363007,   39.9317513
   1828,  -159.363007,   44.9658737
   1829,  -164.412003,  -45.0385017
   1830,  -164.412003,  -40.0769997
   1831,  -164.412003,  -35.1155014
   1832,  -164.412003,  -30.1539993
   1833,  -164.412003,  -25.1924992
   1834,  -164.412003,  -20.2310009
   1835,  -164.412003,  -15.2694998
   1836,  -164.412003,  -10.3079996
   1837,  -164.412003,  -5.34649992
   1838,  -164.412003, -0.314999998
   1839,  -164.412003,   4.71649981
   1840,  -164.412003,   9.74800014
   1841,  -164.412003,      14.7795
   1842,  -164.412003,   19.8110008
   1843,  -164.412003,   24.8425007
   1844,  -164.412003,   29.8740005
   1845,  -164.412003,   34.9054985
   1846,  -164.412003,   39.9370003
   1847,  -164.412003,   44.9684982
   1848,  -169.460999,  -45.0352898
   1849,  -169.460999,  -40.0705833
   1850,  -169.460999,  -35.1058731
   1851,  -169.460999,  -30.1411667
   1852,  -169.460999,  -25.1764584
   1853,  -169.460999,    -20.21175
   1854,  -169.460999,  -15.2470417
   1855,  -169.460999,  -10.2823334
   1856,  -169.460999,  -5.31762505
   1857,  -169.460999, -0.288749993
   1858,  -169.460999,   4.74012518
   1859,  -169.460999,   9.76900005
   1860,  -169.460999,   14.7978754
   1861,  -169.460999,   19.8267498
   1862,  -169.460999,   24.8556252
   1863,  -169.460999,   29.8845005
   1864,  -169.460999,   34.9133759
   1865,  -169.460999,   39.9422493
   1866,  -169.460999,   44.9711266
   1867,  -174.509995,  -45.0320816
   1868,  -174.509995,   -40.064167
   1869,  -174.509995,  -35.0962486
   1870,  -174.509995,   -30.128334
   1871,  -174.509995,  -25.1604176
   1872,  -174.509995,  -20.1924992
   1873,  -174.509995,  -15.2245836
   1874,  -174.509995,  -10.2566671
   1875,  -174.509995,  -5.28875017
   1876,  -174.509995, -0.262499988
   1877,  -174.509995,   4.76375008
   1878,  -174.509995,   9.78999996
   1879,  -174.509995,   14.8162498
   1880,  -174.509995,   19.8425007
   1881,  -174.509995,   24.8687496
   1882,  -174.509995,   29.8950005
   1883,  -174.509995,   34.9212494
   1884,  -174.509995,   39.9474983
   1885,  -174.509995,   44.9737511
   1886,  -179.559006,  -45.0288734
   1887,  -179.559006,  -40.0577507
   1888,  -179.559006,  -35.0866241
   1889,  -179.559006,  -30.1154995
   1890,  -179.559006,  -25.1443748
   1891,  -179.559006,  -20.1732502
   1892,  -179.559006,  -15.2021246
   1893,  -179.559006,  -10.2309999
   1894,  -179.559006,  -5.25987482
   1895,  -179.559006, -0.236249998
   1896,  -179.559006,   4.78737497
   1897,  -179.559006,   9.81099987
   1898,  -179.559006,   14.8346252
   1899,  -179.559006,   19.8582497
   1900,  -179.559006,   24.8818741
   1901,  -179.559006,   29.9055004
   1902,  -179.559006,   34.9291267
   1903,  -179.559006,   39.9527512
   1904,  -179.559006,   44.9763756
   1905,  -184.608002,  -45.0256653
   1906,  -184.608002,  -40.0513344
   1907,  -184.608002,  -35.0769997
   1908,  -184.608002,  -30.1026669
   1909,  -184.608002,   -25.128334
   1910,  -184.608002,  -20.1539993
   1911,  -184.608002,  -15.1796665
   1912,  -184.608002,  -10.2053337
   1913,  -184.608002,  -5.23099995
   1914,  -184.608002, -0.209999993
   1915,  -184.608002,   4.81099987
   1916,  -184.608002,   9.83199978
   1917,  -184.608002,   14.8529997
   1918,  -184.608002,   19.8740005
   1919,  -184.608002,   24.8950005
   1920,  -184.608002,   29.9160004
   1921,  -184.608002,   34.9370003
   1922,  -184.608002,   39.9580002
   1923,  -184.608002,   44.9790001
   1924,  -189.656998,  -45.0224571
   1925,  -189.656998,  -40.0449181
   1926,  -189.656998,  -35.0673752
   1927,  -189.656998,  -30.0898342
   1928,  -189.656998,  -25.1122913
   1929,  -189.656998,  -20.1347504
   1930,  -189.656998,  -15.1572084
   1931,  -189.656998,  -10.1796665
   1932,  -189.656998,  -5.20212507
   1933,  -189.656998, -0.183750004
   1934,  -189.656998,   4.83462477
   1935,  -189.656998,   9.85299969
   1936,  -189.656998,   14.8713751
   1937,  -189.656998,   19.8897495
   1938,  -189.656998,   24.9081249
   1939,  -189.656998,   29.9265003
   1940,  -189.656998,   34.9448738
   1941,  -189.656998,   39.9632492
   1942,  -189.656998,   44.9816246
   1943,  -194.705994,   -45.019249
   1944,  -194.705994,  -40.0385017
   1945,  -194.705994,  -35.0577507
   1946,  -194.705994,  -30.0769997
   1947,  -194.705994,  -25.0962505
   1948,  -194.705994,  -20.1154995
   1949,  -194.705994,  -15.1347504
   1950,  -194.705994,  -10.1540003
   1951,  -194.705994,   -5.1732502
   1952,  -194.705994, -0.157499999
   1953,  -194.705994,   4.85825014
   1954,  -194.705994,    9.8739996
   1955,  -194.705994,   14.8897495
   1956,  -194.705994,   19.9055004
   1957,  -194.705994,   24.9212494
   1958,  -194.705994,   29.9370003
   1959,  -194.705994,   34.9527512
   1960,  -194.705994,   39.9684982
   1961,  -194.705994,   44.9842491
   1962,  -199.755005,  -45.0160408
   1963,  -199.755005,  -40.0320816
   1964,  -199.755005,  -35.0481262
   1965,  -199.755005,   -30.064167
   1966,  -199.755005,  -25.0802078
   1967,  -199.755005,  -20.0962505
   1968,  -199.755005,  -15.1122913
   1969,  -199.755005,  -10.1283331
   1970,  -199.755005,  -5.14437485
   1971,  -199.755005, -0.131249994
   1972,  -199.755005,   4.88187504
   1973,  -199.755005,   9.89500046
   1974,  -199.755005,   14.9081249
   1975,  -199.755005,   19.9212494
   1976,  -199.755005,   24.9343758
   1977,  -199.755005,   29.9475002
   1978,  -199.755005,   34.9606247
   1979,  -199.755005,   39.9737511
   1980,  -199.755005,   44.9868736
   1981,  -204.804001,  -45.0128326
   1982,  -204.804001,  -40.0256653
   1983,  -204.804001,  -35.0385017
   1984,  -204.804001,  -30.0513325
   1985,  -204.804001,   -25.064167
   1986,  -204.804001,  -20.0769997
   1987,  -204.804001,  -15.0898333
   1988,  -204.804001,  -10.1026669
   1989,  -204.804001,  -5.11549997
   1990,  -204.804001, -0.104999997
   1991,  -204.804001,   4.90549994
   1992,  -204.804001,   9.91600037
   1993,  -204.804001,   14.9265003
   1994,  -204.804001,   19.9370003
   1995,  -204.804001,   24.9475002
   1996,  -204.804001,   29.9580002
   1997,  -204.804001,   34.9684982
   1998,  -204.804001,   39.9790001
   1999,  -204.804001,   44.9894981
   2000,  -209.852997,  -45.0096245
   2001,  -209.852997,   -40.019249
   2002,  -209.852997,  -35.0288734
   2003,  -209.852997,  -30.0384998
   2004,  -209.852997,  -25.0481243
   2005,  -209.852997,  -20.0577507
   2006,  -209.852997,  -15.0673752
   2007,  -209.852997,  -10.0769997
   2008,  -209.852997,   -5.0866251
   2009,  -209.852997, -0.0787499994
   2010,  -209.852997,   4.92912483
   2011,  -209.852997,   9.93700027
   2012,  -209.852997,   14.9448748
   2013,  -209.852997,   19.9527493
   2014,  -209.852997,   24.9606247
   2015,  -209.852997,   29.9685001
   2016,  -209.852997,   34.9763756
   2017,  -209.852997,   39.9842491
   2018,  -209.852997,   44.9921265
   2019,  -214.901993,  -45.0064163
   2020,  -214.901993,  -40.0128326
   2021,  -214.901993,   -35.019249
   2022,  -214.901993,  -30.0256672
   2023,  -214.901993,  -25.0320835
   2024,  -214.901993,  -20.0384998
   2025,  -214.901993,  -15.0449171
   2026,  -214.901993,  -10.0513334
   2027,  -214.901993,  -5.05775023
   2028,  -214.901993, -0.0524999984
   2029,  -214.901993,   4.95275021
   2030,  -214.901993,   9.95800018
   2031,  -214.901993,   14.9632502
   2032,  -214.901993,   19.9685001
   2033,  -214.901993,   24.9737492
   2034,  -214.901993,   29.9790001
   2035,  -214.901993,   34.9842491
   2036,  -214.901993,   39.9894981
   2037,  -214.901993,    44.994751
   2038,  -219.951004,  -45.0032082
   2039,  -219.951004,  -40.0064163
   2040,  -219.951004,  -35.0096245
   2041,  -219.951004,  -30.0128326
   2042,  -219.951004,  -25.0160408
   2043,  -219.951004,  -20.0192509
   2044,  -219.951004,  -15.0224581
   2045,  -219.951004,  -10.0256662
   2046,  -219.951004,  -5.02887487
   2047,  -219.951004, -0.0262499992
   2048,  -219.951004,    4.9763751
   2049,  -219.951004,   9.97900009
   2050,  -219.951004,   14.9816246
   2051,  -219.951004,   19.9842491
   2052,  -219.951004,   24.9868755
   2053,  -219.951004,      29.9895
   2054,  -219.951004,   34.9921265
   2055,  -219.951004,    39.994751
   2056,  -219.951004,   44.9973755
   2057,  -6.27487087, -0.736848712
   2058,  -3.16683364, -0.617864251
   2059,  -4.11143589,  -0.46193853
   2060,   -3.6727438, -0.560649335
   2061,  -5.84705925, -0.591566145
   2062,  -4.98792505, -0.412808925
   2063,  -4.73226929,  -1.52083552
   2064,  -4.00272036,   -1.1224463
   2065,  -5.82970476,  -1.63480127
   2066,  -5.08805037,  -3.35880375
   2067,   -4.5557704, -0.426882774
   2068,  -3.37167478,  -1.37784553
   2069,  -3.92009187,  -2.46899414
   2070,  -5.40756369, -0.485094339
   2071,  -6.91908169, -0.669975936
   2072,  -5.60209513,  -1.10410881
   2073,  -5.19037819, -0.987459183
   2074,  -4.62088633, -0.906689763
   2075,  -4.23968315, -0.852433443
   2076,  -4.93567371, -0.786814451
   2077,  -8.67066097,  0.552081823
   2078,   -8.7430582,   2.36476541
   2079,  -8.41240597,   3.64388466
   2080,  -8.05016422,   4.04499626
   2081,  -8.40443325,     5.481884
   2082,  -8.44967842,   6.53834009
   2083,  -8.41603184,   7.06329966
   2084,  -8.43489265,   8.13086605
   2085,  -8.30167007,   9.13450623
   2086,  -8.11664867,   10.5803967
   2087,  -8.06606483,   11.4885035
   2088,  -8.12534714,    11.952096
   2089,  -8.28095531,   13.9723339
   2090,  -8.24669743,   14.4687662
   2091,  -8.15479374,   14.9514351
   2092,  -8.20834064,    15.906599
   2093,   -8.4315033,   16.4025917
   2094,  -8.42968559,   17.5357056
   2095,  -8.46396065,   18.7046833
   2096,  -8.16665936,   19.6709595
   2097,  -8.05375862,   21.1210632
   2098,   -7.9814353,   22.0544376
   2099,   -7.9816246,   22.9544106
   2100,  -8.12249184,   23.8561459
   2101,  -8.33473682,   24.2838211
   2102,  -8.40783119,   25.4184742
   2103,  -8.44575596,   26.4903107
   2104,  -8.43763828,   27.5751381
   2105,  -8.34214592,   28.7221832
   2106,  -8.00991535,   29.6479206
   2107,  -8.39919758,   30.9784966
   2108,  -7.91536713,   31.9884377
   2109,  -8.11137295,   32.3547096
   2110,  -8.13712883,   33.5280075
   2111,  -8.32041264,   34.3412285
   2112,  -8.30841923,   35.9796028
   2113,  -8.22444725,   37.0001678
   2114,  -8.22678375,   37.5037994
   2115,   -8.1709671,   38.4983597
   2116,  -8.21553898,   39.4690895
   2117,  -8.34572506,    40.485836
   2118,  -8.19575977,   42.5380898
   2119,  -8.18353367,   43.4925766
   2120,   -8.1011076,   44.4523811
   2121,  -8.03622341,   45.3807793
   2122,  -8.26519489,   46.2521667
   2123,  -8.57564545,   47.2591286
   2124,  -8.10721684,   48.4196892
   2125,   -8.4161377,   49.2984009
   2126,  -8.41165161,   41.5518951
   2127,  -9.84173584,  -1.75663519
   2128,  -8.46021652,   41.0159683
   2129,  -8.89796448,   42.2064171
   2130,  -9.06698322,   4.81010485
   2131,   -8.9444046,   10.3238878
   2132,  -8.10582161,   15.4338579
   2133,  -8.63641834,   20.3125896
   2134,  -8.70850849,   24.8111477
   2135,  -9.14173222,   35.3837242
   2136,  -8.29438305,    1.9263047
   2137,  -9.64789486,   2.75861454
   2138,  -9.31070995,   3.57370305
   2139,  -9.25389767,   5.99516678
   2140,  -9.21490383,   7.12298584
   2141,  -8.44883251,    7.6150713
   2142,  -9.07931995,   8.80350018
   2143,  -8.50257206,   11.0838337
   2144,  -8.64004898,   11.8155985
   2145,  -8.33385754,   12.9277363
   2146,  -8.35360909,   13.4527941
   2147,  -9.13447571,   16.0369148
   2148,   -8.7811985,   17.0072823
   2149,  -8.73775196,   18.1152058
   2150,  -9.19240665,   19.1406384
   2151,  -8.64389038,   21.2723541
   2152,  -8.40529728,   22.0884132
   2153,   -8.4016552,    22.920145
   2154,  -8.55365181,   23.6234169
   2155,  -8.75664711,   25.9135151
   2156,  -8.82022095,    27.036417
   2157,   -8.7448597,   28.1741524
   2158,  -8.89854622,    29.180645
   2159,  -9.11173153,   31.4640312
   2160,  -8.62237167,   31.9561882
   2161,  -8.34530067,   32.9087677
   2162,  -8.99780464,   36.9926147
   2163,  -8.20382309,   38.0093002
   2164,  -8.96217155,    39.327343
   2165,   -9.0844202,   40.3719826
   2166,  -9.05629253,      43.5014
   2167,  -8.85072517,   45.8191261
   2168,  -8.84773159,   44.5257835
   2169,  -8.54491711,   45.2599792
   2170,  -8.46509838,   46.7183189
   2171,  -9.25809479,  -0.36264652
   2172,  -9.72815514,   44.1656876
   2173,  -9.19612408,   48.2536697
   2174,  -9.17681122,   14.5298004
   2175,   -8.8767786,   38.5599632
   2176,  -9.34526157,   36.0626831
   2177,  -9.27092838,   34.4249229
   2178,  -9.11149979,   33.9290428
   2179,  -9.00529766,   32.4043083
   2180,  -9.60173035,    31.996376
   2181,  -8.99890041,    30.508049
   2182,  -8.56200218,   29.9426746
   2183,  -9.50778294,   28.8697929
   2184,  -9.82799721,    27.689724
   2185,  -9.71893597,   26.3982697
   2186,  -9.60331154,   25.1847095
   2187,  -8.88281918,   23.7890816
   2188,  -9.10320759,   23.0707054
   2189,  -9.09265804,   22.0221786
   2190,  -9.23768902,   20.8208466
   2191,  -9.25061798,   20.1725254
   2192,  -9.67478371,   19.7151394
   2193,  -9.59825802,   18.7593136
   2194,  -9.56541538,   17.6333847
   2195,  -9.92821312,   16.3981285
   2196,  -9.69548988,   15.0368805
   2197,  -9.37698746,   13.4870863
   2198,   -9.0769825,   12.1235828
   2199,  -9.29396915,   11.3081856
   2200,  -9.67430782,   10.6531858
   2201,  -9.14871979,   9.29663086
   2202,  -9.61128712,   8.43280506
   2203,  -9.44135189,   7.67109632
   2204,  -9.62965679,   6.60067129
   2205,  -9.53428841,   5.40379953
   2206,   -10.111661,    46.989296
   2207,   -9.4889698,   4.10915709
   2208,  -9.87638187,   45.1805038
   2209,  -10.1395149,   3.42259049
   2210,  -9.70586967,   40.8806572
   2211,  -9.47628117,   41.8607483
   2212,  -11.4166651,  0.423231304
   2213,  -10.6623564,   2.27991366
   2214,  -11.4606199,   47.9651299
   2215,  -9.60539055,   42.8337364
   2216,  -10.0943193,   39.8038559
   2217,  -10.1849794,     4.833529
   2218,   -10.602746,   6.00504732
   2219,  -10.4090557,   7.36966896
   2220,  -10.1303082,   9.35622215
   2221,  -10.1518078,   11.6071186
   2222,  -9.91539574,   12.2105093
   2223,  -10.1546516,   13.0821285
   2224,  -11.4494991,   15.8881073
   2225,  -10.4676542,    17.151907
   2226,  -10.2557306,   18.3634224
   2227,  -10.1564522,   19.4854565
   2228,  -9.87187004,   20.5291805
   2229,  -10.2458305,    21.627594
   2230,  -9.67740059,   22.4502296
   2231,  -9.45586491,   24.0536747
   2232,  -10.1869049,   25.6824093
   2233,  -10.9103479,    26.907032
   2234,  -10.6200619,   28.5586548
   2235,   -9.7919035,   29.5550537
   2236,  -9.75987244,   30.9291878
   2237,  -9.98058414,   32.5650902
   2238,  -9.64419842,   33.2045822
   2239,  -9.90379238,   33.8750496
   2240,  -9.93166256,   34.9537086
   2241,  -9.86716557,   36.8487358
   2242,  -9.82812595,   38.8386269
   2243,  -11.0386992,     36.60009
   2244,  -11.5009241,   4.22528601
   2245,  -10.0629053,   14.1057329
   2246,  -10.9537725,   43.3878021
   2247,   -11.069313,   45.2820587
   2248,  -11.1369581,   3.20629835
   2249,  -15.1816559,   45.9291534
   2250,  -11.6114645,   39.7246475
   2251,  -11.5494041,   34.7626419
   2252,  -11.7245808,   9.45627594
   2253,  -11.5186968,   6.88695335
   2254,  -10.6147976,   12.5188055
   2255,  -13.0622091,   16.6240253
   2256,  -10.5390749,   20.3255157
   2257,  -11.1439734,   21.2396145
   2258,  -10.6481895,   24.1883068
   2259,  -10.7207193,   29.5873966
   2260,  -11.5250053,   31.7480125
   2261,  -12.4519272,   33.1283989
   2262,  -11.2270136,   38.0738258
   2263,  -11.3412199,   41.2643013
   2264,  -11.8560371,   14.4217968
   2265,  -11.3422546,   5.29476833
   2266,  -10.6752348,   42.1419144
   2267,  -13.1417656,    4.1049757
   2268,  -12.0365543,   22.7406673
   2269,  -12.5123196,   28.0596619
   2270,  -11.1433496,   17.9832821
   2271,  -13.1727648,   37.5238152
   2272,  -12.9302254,   8.27233791
   2273,  -13.2974815,   10.8291006
   2274,  -13.9713688,   34.6294365
   2275,  -13.6711779,   31.3914738
   2276,  -11.9801054,   30.2903576
   2277,  -13.0403557,   20.7103367
   2278,  -14.1682587,   24.8673763
   2279,   -13.203805,   6.35968208
   2280,  -13.9397011,   15.0757723
   2281,  -13.1479225,   42.3745728
   2282,  -15.1504593,   2.78313565
   2283,  -15.9583101,   42.1205254
   2284,  -12.1699486,   12.7565145
   2285,  -14.4314775,   18.1661186
   2286,  -15.1749773,   36.5353813
   2287,  -14.8236485,   9.65362358
   2288,  -15.5272999,    32.901844
   2289,  -13.7020273,  -1.38663316
   2290,  -12.8994999,   18.8003178
   2291,   -15.549799,   27.4018288
   2292,  -14.0704088,   12.8304358
   2293,    -13.55163,   39.6183281
   2294,  -15.9275198,   38.9686356
   2295,  -17.3994694,   34.8498306
   2296,   -14.964757,   20.9815598
   2297,  -16.8455772,   30.6724548
   2298,  -17.6093655,   24.3755531
   2299,  -18.5580463,  -1.50978088
   2300,   -19.108696,   2.92077279
   2301,  -16.2812328,   12.4038429
   2302,  -19.2577438,   41.2969818
   2303,  -17.6674004,   27.7141399
   2304,  -16.6225243,   16.3007526
   2305,  -17.5036678,   20.4603901
   2306,  -20.2995701,     28.57547
   2307,  -18.8301754,   45.7914505
   2308,  -19.4358978,   32.2591133
   2309,  -20.4899235,   24.3646374
   2310,  -19.8092175,   15.2812939
   2311,  -18.9828377,   11.1950903
   2312,  -19.3005371,   6.39547682
   2313,  -18.9230404,   37.4782524
   2314,  -20.3249302,   19.8253345
   2315,  -8.31867123,    48.787468
   2316,  -9.63033485,   48.9488411
   2317,  -8.09388161,   45.8353271
   2318,  -8.02934361,   44.9149513
   2319,  -8.12917709,   43.9782906
   2320,  -8.15878868,   43.0217781
   2321,  -8.26937675,   42.0454407
   2322,  -8.28881359,   39.9594116
   2323,  -8.14989281,   38.9854736
   2324,  -8.23906612,   36.4869995
   2325,  -8.30912971,   35.4733047
   2326,   -8.2788496,   34.9325714
   2327,  -7.99714661,   33.9537048
   2328,  -8.13003445,   31.5922546
   2329,  -8.10207081,   30.3672009
   2330,  -7.87016916,   29.9974842
   2331,  -8.11473751,   29.1850796
   2332,  -8.02395248,   23.4025803
   2333,  -8.00033569,   22.5062351
   2334,  -8.01577759,   21.5852909
   2335,  -8.07164288,   20.6353207
   2336,  -8.09721279,    20.146534
   2337,  -8.28246689,   19.1977196
   2338,  -8.25215816,    12.413826
   2339,  -8.04265499,   11.0316038
   2340,  -8.20444298,    10.112812
   2341,  -8.26904869,   9.62682629
   2342,  -8.34757328,   8.62182713
   2343,  -8.42139816,   6.00800276
   2344,  -8.30289936,   4.97200966
   2345,  -8.17862129,   4.45826578
   2346,  -8.48315811,   3.01339245
   2347,  -8.26645756,    1.0184443
   2348,  -9.81235981,  -3.50435567
   2349,  -12.8857775,   45.5116806
   2350,  -8.41939926,     1.469221
   2351,  -9.73479652,   1.43966854
   2352,  -8.36306286,   47.9382401
   2353,  -9.38475037,   46.2007523
   2354,  -8.52730274,   45.6333542
   2355,  -8.47375298,   44.9201088
   2356,  -8.70331192,   44.0184288
   2357,  -8.73026085,   43.0393372
   2358,  -9.12617683,   39.8564758
   2359,  -8.70198631,   38.9543152
   2360,  -8.93142796,   38.0652084
   2361,  -8.56083679,   15.3870316
   2362,  -8.77322483,   15.0402737
   2363,  -8.99277496,   14.0142298
   2364,  -9.15405464,   12.8136625
   2365,  -8.63407326,   11.4356947
   2366,  -8.72782803,   10.7934036
   2367,  -9.09498692,    9.8139019
   2368,  -8.78966331,   4.26181555
   2369,  -9.01503849,   37.5265617
   2370,  -8.89670372,   36.5388298
   2371,  -8.93332291,   34.9257469
   2372,   -8.6234808,   33.7605515
   2373,  -8.92357063,   33.2627869
   2374,  -8.90397644,   19.5032597
   2375,  -8.73598862,   19.9005775
   2376,  -8.63694382,   20.7703114
   2377,  -8.55842972,   21.7353745
   2378,  -8.63728046,   22.5184288
   2379,  -8.54300594,   29.4272823
   2380,  -9.18773079,   3.13752341
   2381,  -16.5149879,   7.35991669
   2382,  -9.38520145,   32.8389778
   2383,  -11.4934559,   25.4275265
   2384,  -9.56186867,   4.56164122
   2385,  -9.14751434,   29.7028103
   2386,  -10.4904871,   35.6220245
   2387,  -9.06603146,   45.1868591
   2388,  -10.9174156,   8.25151157
   2389,  -12.3544998,   2.03382015
   2390,  -10.0180302,   10.0750608
   2391,  -9.60604191,   38.1697884
   2392,  -9.94000626,   37.6196861
   2393,  -9.16909409,    15.345849
   2394,  -8.76713276,   15.6808882
   2395,   -10.576622,   14.7389431
   2396,  -9.40665245,   33.5769196
   2397,  -9.75923634,   12.6919823
   2398,  -8.87954044,   42.6508293
   2399,  -9.31574917,   19.8185768
   2400,  -10.7968178,   19.1979237
   2401,  -11.6877003,    19.020256
   2402,   -10.223175,   31.6371861
   2403,  -12.4880505,    35.871769
   2404,  -11.3566723,   16.7902031
   2405,  -12.1633482,   17.5109329
   2406,   -10.312295,   11.0249739
   2407,  -12.2315674,   3.01663709
   2408,  -11.1210308,   10.7285328
   2409,  -10.8404169,   13.6454411
   2410,  -9.06718826,   20.4249477
   2411,  -9.31508636,   21.4423618
   2412,  -8.52933121,   23.2464848
   2413,  -11.7704811,   7.77236986
   2414,  -10.3310833,   4.15184259
   2415,  -14.6269665,   29.3565235
   2416,  -10.6391392,   34.2282295
   2417,  -11.0148754,   11.8816881
   2418,  -10.7188282,   32.3047409
   2419,  -10.1484003,   33.2111206
   2420,  -11.0280418,   19.9624329
   2421,  -11.7729263,   20.2554359
   2422,  -12.2845125,    11.419611
   2423,    -9.315835,   30.1408825
   2424,  -9.83479881,   30.1996174
   2425,  -10.4592333,    30.166851
   2426,  -9.59758949,   23.4226379
   2427,  -9.93461418,   15.6346197
   2428,  -9.39976978,   15.6754885
   2429,  -10.6705809,   15.3890085
   2430,   -10.828043,   31.3302574
   2431,  -10.7608662,   30.6948986
   2432,  -11.0113564,   33.2225151
   2433,  -11.2041311,   13.0021839
   2434,   -10.221715,   23.1504021
   2435,  -10.8445234,   22.5472584
   2436,   3.71599722, -0.785385609
   2437,    4.2388134, -0.621858418
   2438,   4.97019243,  -0.58219564
   2439,   5.95976925, -0.450568706
   2440,   6.92622185, -0.633296967
   2441,   3.94804072,   -1.6180203
   2442,   4.72880077,  -1.13520241
   2443,   5.83530569,  -1.46804452
   2444,   4.91032124,   -3.1708312
   2445,   6.31576109,  -0.65527159
   2446,   5.54988527,  -0.63000834
   2447,   4.55575418, -0.410703093
   2448,   3.07684517, -0.686054707
   2449,   6.99998426,          0.5
   2450,   6.99996805,           1.
   2451,   6.99995232,          1.5
   2452,   6.99993658,           2.
   2453,   6.99992037,          2.5
   2454,   6.99990463,           3.
   2455,    6.9998889,          3.5
   2456,   6.99987268,           4.
   2457,   6.99985695,          4.5
   2458,   6.99984121,           5.
   2459,     6.999825,          5.5
   2460,   6.99980927,           6.
   2461,   6.99979353,          6.5
   2462,   6.99977779,           7.
   2463,   6.99976158,          7.5
   2464,   6.99974585,           8.
   2465,   6.99973011,          8.5
   2466,    6.9997139,           9.
   2467,   6.99969816,          9.5
   2468,   6.99968243,          10.
   2469,   6.99966621,         10.5
   2470,   6.99965048,          11.
   2471,   6.99963474,         11.5
   2472,   6.99961853,          12.
   2473,   6.99960279,         12.5
   2474,   6.99958706,          13.
   2475,   6.99957085,         13.5
   2476,   6.99955511,          14.
   2477,   6.99953938,         14.5
   2478,   6.99952316,          15.
   2479,   6.99950743,         15.5
   2480,   6.99949169,          16.
   2481,   6.99947548,         16.5
   2482,   6.99945974,          17.
   2483,   6.99944401,         17.5
   2484,    6.9994278,          18.
   2485,   6.99941206,         18.5
   2486,   6.99939632,          19.
   2487,   6.99938059,         19.5
   2488,   6.99936438,          20.
   2489,   6.99934864,         20.5
   2490,    6.9993329,          21.
   2491,   6.99931669,         21.5
   2492,   6.99930096,          22.
   2493,   6.99928522,         22.5
   2494,   6.99926901,          23.
   2495,   6.99925327,         23.5
   2496,   6.99923754,          24.
   2497,   6.99922132,         24.5
   2498,   6.99920559,          25.
   2499,   6.99918985,         25.5
   2500,   6.99917364,          26.
   2501,   6.99915791,         26.5
   2502,   6.99914217,          27.
   2503,   6.99912596,         27.5
   2504,   6.99911022,          28.
   2505,   6.99909449,         28.5
   2506,   6.99907827,          29.
   2507,   6.99906254,         29.5
   2508,    6.9990468,          30.
   2509,   6.99903059,         30.5
   2510,   6.99901485,          31.
   2511,   6.99899912,         31.5
   2512,   6.99898338,          32.
   2513,   6.99896717,         32.5
   2514,   6.99895144,          33.
   2515,    6.9989357,         33.5
   2516,   6.99891949,          34.
   2517,   6.99890375,         34.5
   2518,   6.99888802,          35.
   2519,    6.9988718,         35.5
   2520,   6.99885607,          36.
   2521,   6.99884033,         36.5
   2522,   6.99882412,          37.
   2523,   6.99880838,         37.5
   2524,   6.99879265,          38.
   2525,   6.99877644,         38.5
   2526,    6.9987607,          39.
   2527,   6.99874496,         39.5
   2528,   6.99872875,          40.
   2529,   6.99871302,         40.5
   2530,   6.99869728,          41.
   2531,   6.99868107,         41.5
   2532,   6.99866533,          42.
   2533,    6.9986496,         42.5
   2534,   6.99863338,          43.
   2535,   6.99861765,         43.5
   2536,   6.99860191,          44.
   2537,   6.99858618,         44.5
   2538,   6.99856997,          45.
   2539,   6.99855423,         45.5
   2540,   6.99853849,          46.
   2541,   6.99852228,         46.5
   2542,   6.99850655,          47.
   2543,   6.99849081,         47.5
   2544,    6.9984746,          48.
   2545,   6.99845886,         48.5
   2546,   6.99844313,          49.
   2547,   6.99842691,         49.5
   2548,   6.49996805,          0.5
   2549,   6.49993658,           1.
   2550,   6.49990463,          1.5
   2551,   6.49987268,           2.
   2552,   6.49984121,          2.5
   2553,   6.49980927,           3.
   2554,   6.49977779,          3.5
   2555,   6.49974585,           4.
   2556,    6.4997139,          4.5
   2557,   6.49968243,           5.
   2558,   6.49965048,          5.5
   2559,   6.49961853,           6.
   2560,   6.49958706,          6.5
   2561,   6.49955511,           7.
   2562,   6.49952316,          7.5
   2563,   6.49949169,           8.
   2564,   6.49945974,          8.5
   2565,    6.4994278,           9.
   2566,   6.49939632,          9.5
   2567,   6.49936438,          10.
   2568,    6.4993329,         10.5
   2569,   6.49930096,          11.
   2570,   6.49926901,         11.5
   2571,   6.49923754,          12.
   2572,   6.49920559,         12.5
   2573,   6.49917364,          13.
   2574,   6.49914217,         13.5
   2575,   6.49911022,          14.
   2576,   6.49907827,         14.5
   2577,    6.4990468,          15.
   2578,   6.49901485,         15.5
   2579,   6.49898338,          16.
   2580,   6.49895144,         16.5
   2581,   6.49891949,          17.
   2582,   6.49888802,         17.5
   2583,   6.49885607,          18.
   2584,   6.49882412,         18.5
   2585,   6.49879265,          19.
   2586,    6.4987607,         19.5
   2587,   6.49872875,          20.
   2588,   6.49869728,         20.5
   2589,   6.49866533,          21.
   2590,   6.49863338,         21.5
   2591,   6.49860191,          22.
   2592,   6.49856997,         22.5
   2593,   6.49853849,          23.
   2594,   6.49850655,         23.5
   2595,    6.4984746,          24.
   2596,   6.49844313,         24.5
   2597,   6.49841118,          25.
   2598,   6.49837923,         25.5
   2599,   6.49834776,          26.
   2600,   6.49831581,         26.5
   2601,   6.49828386,          27.
   2602,   6.49825239,         27.5
   2603,   6.49822044,          28.
   2604,   6.49818897,         28.5
   2605,   6.49815702,          29.
   2606,   6.49812508,         29.5
   2607,   6.49809361,          30.
   2608,   6.49806166,         30.5
   2609,   6.49802971,          31.
   2610,   6.49799824,         31.5
   2611,   6.49796629,          32.
   2612,   6.49793434,         32.5
   2613,   6.49790287,          33.
   2614,   6.49787092,         33.5
   2615,   6.49783897,          34.
   2616,    6.4978075,         34.5
   2617,   6.49777555,          35.
   2618,   6.49774408,         35.5
   2619,   6.49771214,          36.
   2620,   6.49768019,         36.5
   2621,   6.49764872,          37.
   2622,   6.49761677,         37.5
   2623,   6.49758482,          38.
   2624,   6.49755335,         38.5
   2625,    6.4975214,          39.
   2626,   6.49748945,         39.5
   2627,   6.49745798,          40.
   2628,   6.49742603,         40.5
   2629,   6.49739456,          41.
   2630,   6.49736261,         41.5
   2631,   6.49733067,          42.
   2632,   6.49729919,         42.5
   2633,   6.49726725,          43.
   2634,    6.4972353,         43.5
   2635,   6.49720383,          44.
   2636,   6.49717188,         44.5
   2637,   6.49713993,          45.
   2638,   6.49710846,         45.5
   2639,   6.49707651,          46.
   2640,   6.49704456,         46.5
   2641,   6.49701309,          47.
   2642,   6.49698114,         47.5
   2643,   6.49694967,          48.
   2644,   6.49691772,         48.5
   2645,   6.49688578,          49.
   2646,   6.49685431,         49.5
   2647,   5.99995232,          0.5
   2648,   5.99990463,           1.
   2649,   5.99985695,          1.5
   2650,   5.99980927,           2.
   2651,   5.99976158,          2.5
   2652,    5.9997139,           3.
   2653,   5.99966621,          3.5
   2654,   5.99961853,           4.
   2655,   5.99957085,          4.5
   2656,   5.99952316,           5.
   2657,   5.99947548,          5.5
   2658,    5.9994278,           6.
   2659,   5.99938059,          6.5
   2660,    5.9993329,           7.
   2661,   5.99928522,          7.5
   2662,   5.99923754,           8.
   2663,   5.99918985,          8.5
   2664,   5.99914217,           9.
   2665,   5.99909449,          9.5
   2666,    5.9990468,          10.
   2667,   5.99899912,         10.5
   2668,   5.99895144,          11.
   2669,   5.99890375,         11.5
   2670,   5.99885607,          12.
   2671,   5.99880838,         12.5
   2672,    5.9987607,          13.
   2673,   5.99871302,         13.5
   2674,   5.99866533,          14.
   2675,   5.99861765,         14.5
   2676,   5.99856997,          15.
   2677,   5.99852228,         15.5
   2678,    5.9984746,          16.
   2679,   5.99842691,         16.5
   2680,   5.99837923,          17.
   2681,   5.99833155,         17.5
   2682,   5.99828386,          18.
   2683,   5.99823618,         18.5
   2684,   5.99818897,          19.
   2685,   5.99814129,         19.5
   2686,   5.99809361,          20.
   2687,   5.99804592,         20.5
   2688,   5.99799824,          21.
   2689,   5.99795055,         21.5
   2690,   5.99790287,          22.
   2691,   5.99785519,         22.5
   2692,    5.9978075,          23.
   2693,   5.99775982,         23.5
   2694,   5.99771214,          24.
   2695,   5.99766445,         24.5
   2696,   5.99761677,          25.
   2697,   5.99756908,         25.5
   2698,    5.9975214,          26.
   2699,   5.99747372,         26.5
   2700,   5.99742603,          27.
   2701,   5.99737835,         27.5
   2702,   5.99733067,          28.
   2703,   5.99728298,         28.5
   2704,    5.9972353,          29.
   2705,   5.99718761,         29.5
   2706,   5.99713993,          30.
   2707,   5.99709225,         30.5
   2708,   5.99704456,          31.
   2709,   5.99699736,         31.5
   2710,   5.99694967,          32.
   2711,   5.99690199,         32.5
   2712,   5.99685431,          33.
   2713,   5.99680662,         33.5
   2714,   5.99675894,          34.
   2715,   5.99671125,         34.5
   2716,   5.99666357,          35.
   2717,   5.99661589,         35.5
   2718,    5.9965682,          36.
   2719,   5.99652052,         36.5
   2720,   5.99647284,          37.
   2721,   5.99642515,         37.5
   2722,   5.99637747,          38.
   2723,   5.99632978,         38.5
   2724,    5.9962821,          39.
   2725,   5.99623442,         39.5
   2726,   5.99618673,          40.
   2727,   5.99613905,         40.5
   2728,   5.99609137,          41.
   2729,   5.99604368,         41.5
   2730,     5.995996,          42.
   2731,   5.99594831,         42.5
   2732,   5.99590063,          43.
   2733,   5.99585295,         43.5
   2734,   5.99580574,          44.
   2735,   5.99575806,         44.5
   2736,   5.99571037,          45.
   2737,   5.99566269,         45.5
   2738,   5.99561501,          46.
   2739,   5.99556732,         46.5
   2740,   5.99551964,          47.
   2741,   5.99547195,         47.5
   2742,   5.99542427,          48.
   2743,   5.99537659,         48.5
   2744,    5.9953289,          49.
   2745,   5.99528122,         49.5
   2746,   5.49993658,          0.5
   2747,   5.49987268,           1.
   2748,   5.49980927,          1.5
   2749,   5.49974585,           2.
   2750,   5.49968243,          2.5
   2751,   5.49961853,           3.
   2752,   5.49955511,          3.5
   2753,   5.49949169,           4.
   2754,    5.4994278,          4.5
   2755,   5.49936438,           5.
   2756,   5.49930096,          5.5
   2757,   5.49923754,           6.
   2758,   5.49917364,          6.5
   2759,   5.49911022,           7.
   2760,    5.4990468,          7.5
   2761,   5.49898338,           8.
   2762,   5.49891949,          8.5
   2763,   5.49885607,           9.
   2764,   5.49879265,          9.5
   2765,   5.49872875,          10.
   2766,   5.49866533,         10.5
   2767,   5.49860191,          11.
   2768,   5.49853849,         11.5
   2769,    5.4984746,          12.
   2770,   5.49841118,         12.5
   2771,   5.49834776,          13.
   2772,   5.49828386,         13.5
   2773,   5.49822044,          14.
   2774,   5.49815702,         14.5
   2775,   5.49809361,          15.
   2776,   5.49802971,         15.5
   2777,   5.49796629,          16.
   2778,   5.49790287,         16.5
   2779,   5.49783897,          17.
   2780,   5.49777555,         17.5
   2781,   5.49771214,          18.
   2782,   5.49764872,         18.5
   2783,   5.49758482,          19.
   2784,    5.4975214,         19.5
   2785,   5.49745798,          20.
   2786,   5.49739456,         20.5
   2787,   5.49733067,          21.
   2788,   5.49726725,         21.5
   2789,   5.49720383,          22.
   2790,   5.49713993,         22.5
   2791,   5.49707651,          23.
   2792,   5.49701309,         23.5
   2793,   5.49694967,          24.
   2794,   5.49688578,         24.5
   2795,   5.49682236,          25.
   2796,   5.49675894,         25.5
   2797,   5.49669504,          26.
   2798,   5.49663162,         26.5
   2799,    5.4965682,          27.
   2800,   5.49650478,         27.5
   2801,   5.49644089,          28.
   2802,   5.49637747,         28.5
   2803,   5.49631405,          29.
   2804,   5.49625015,         29.5
   2805,   5.49618673,          30.
   2806,   5.49612331,         30.5
   2807,   5.49605989,          31.
   2808,     5.495996,         31.5
   2809,   5.49593258,          32.
   2810,   5.49586916,         32.5
   2811,   5.49580574,          33.
   2812,   5.49574184,         33.5
   2813,   5.49567842,          34.
   2814,   5.49561501,         34.5
   2815,   5.49555111,          35.
   2816,   5.49548769,         35.5
   2817,   5.49542427,          36.
   2818,   5.49536085,         36.5
   2819,   5.49529696,          37.
   2820,   5.49523354,         37.5
   2821,   5.49517012,          38.
   2822,   5.49510622,         38.5
   2823,    5.4950428,          39.
   2824,   5.49497938,         39.5
   2825,   5.49491596,          40.
   2826,   5.49485207,         40.5
   2827,   5.49478865,          41.
   2828,   5.49472523,         41.5
   2829,   5.49466133,          42.
   2830,   5.49459791,         42.5
   2831,   5.49453449,          43.
   2832,   5.49447107,         43.5
   2833,   5.49440718,          44.
   2834,   5.49434376,         44.5
   2835,   5.49428034,          45.
   2836,   5.49421692,         45.5
   2837,   5.49415302,          46.
   2838,    5.4940896,         46.5
   2839,   5.49402618,          47.
   2840,   5.49396229,         47.5
   2841,   5.49389887,          48.
   2842,   5.49383545,         48.5
   2843,   5.49377203,          49.
   2844,   5.49370813,         49.5
   2845,   4.99992037,          0.5
   2846,   4.99984121,           1.
   2847,   4.99976158,          1.5
   2848,   4.99968243,           2.
   2849,   4.99960279,          2.5
   2850,   4.99952316,           3.
   2851,   4.99944401,          3.5
   2852,   4.99936438,           4.
   2853,   4.99928522,          4.5
   2854,   4.99920559,           5.
   2855,   4.99912596,          5.5
   2856,    4.9990468,           6.
   2857,   4.99896717,          6.5
   2858,   4.99888802,           7.
   2859,   4.99880838,          7.5
   2860,   4.99872875,           8.
   2861,    4.9986496,          8.5
   2862,   4.99856997,           9.
   2863,   4.99849081,          9.5
   2864,   4.99841118,          10.
   2865,   4.99833155,         10.5
   2866,   4.99825239,          11.
   2867,   4.99817276,         11.5
   2868,   4.99809361,          12.
   2869,   4.99801397,         12.5
   2870,   4.99793434,          13.
   2871,   4.99785519,         13.5
   2872,   4.99777555,          14.
   2873,    4.9976964,         14.5
   2874,   4.99761677,          15.
   2875,   4.99753714,         15.5
   2876,   4.99745798,          16.
   2877,   4.99737835,         16.5
   2878,   4.99729919,          17.
   2879,   4.99721956,         17.5
   2880,   4.99713993,          18.
   2881,   4.99706078,         18.5
   2882,   4.99698114,          19.
   2883,   4.99690199,         19.5
   2884,   4.99682236,          20.
   2885,   4.99674273,         20.5
   2886,   4.99666357,          21.
   2887,   4.99658394,         21.5
   2888,   4.99650478,          22.
   2889,   4.99642515,         22.5
   2890,   4.99634552,          23.
   2891,   4.99626637,         23.5
   2892,   4.99618673,          24.
   2893,   4.99610758,         24.5
   2894,   4.99602795,          25.
   2895,   4.99594831,         25.5
   2896,   4.99586916,          26.
   2897,   4.99578953,         26.5
   2898,   4.99571037,          27.
   2899,   4.99563074,         27.5
   2900,   4.99555111,          28.
   2901,   4.99547195,         28.5
   2902,   4.99539232,          29.
   2903,   4.99531317,         29.5
   2904,   4.99523354,          30.
   2905,    4.9951539,         30.5
   2906,   4.99507475,          31.
   2907,   4.99499512,         31.5
   2908,   4.99491596,          32.
   2909,   4.99483633,         32.5
   2910,    4.9947567,          33.
   2911,   4.99467754,         33.5
   2912,   4.99459791,          34.
   2913,   4.99451876,         34.5
   2914,   4.99443913,          35.
   2915,   4.99435949,         35.5
   2916,   4.99428034,          36.
   2917,   4.99420071,         36.5
   2918,   4.99412155,          37.
   2919,   4.99404192,         37.5
   2920,   4.99396229,          38.
   2921,   4.99388313,         38.5
   2922,    4.9938035,          39.
   2923,   4.99372435,         39.5
   2924,   4.99364471,          40.
   2925,   4.99356508,         40.5
   2926,   4.99348593,          41.
   2927,    4.9934063,         41.5
   2928,   4.99332714,          42.
   2929,   4.99324751,         42.5
   2930,   4.99316788,          43.
   2931,   4.99308872,         43.5
   2932,   4.99300909,          44.
   2933,   4.99292994,         44.5
   2934,    4.9928503,          45.
   2935,   4.99277067,         45.5
   2936,   4.99269152,          46.
   2937,   4.99261189,         46.5
   2938,   4.99253273,          47.
   2939,    4.9924531,         47.5
   2940,   4.99237347,          48.
   2941,   4.99229431,         48.5
   2942,   4.99221468,          49.
   2943,   4.99213552,         49.5
   2944,   4.49990463,          0.5
   2945,   4.49980927,           1.
   2946,    4.4997139,          1.5
   2947,   4.49961853,           2.
   2948,   4.49952316,          2.5
   2949,    4.4994278,           3.
   2950,    4.4993329,          3.5
   2951,   4.49923754,           4.
   2952,   4.49914217,          4.5
   2953,    4.4990468,           5.
   2954,   4.49895144,          5.5
   2955,   4.49885607,           6.
   2956,    4.4987607,          6.5
   2957,   4.49866533,           7.
   2958,   4.49856997,          7.5
   2959,    4.4984746,           8.
   2960,   4.49837923,          8.5
   2961,   4.49828386,           9.
   2962,   4.49818897,          9.5
   2963,   4.49809361,          10.
   2964,   4.49799824,         10.5
   2965,   4.49790287,          11.
   2966,    4.4978075,         11.5
   2967,   4.49771214,          12.
   2968,   4.49761677,         12.5
   2969,    4.4975214,          13.
   2970,   4.49742603,         13.5
   2971,   4.49733067,          14.
   2972,    4.4972353,         14.5
   2973,   4.49713993,          15.
   2974,   4.49704456,         15.5
   2975,   4.49694967,          16.
   2976,   4.49685431,         16.5
   2977,   4.49675894,          17.
   2978,   4.49666357,         17.5
   2979,    4.4965682,          18.
   2980,   4.49647284,         18.5
   2981,   4.49637747,          19.
   2982,    4.4962821,         19.5
   2983,   4.49618673,          20.
   2984,   4.49609137,         20.5
   2985,     4.495996,          21.
   2986,   4.49590063,         21.5
   2987,   4.49580574,          22.
   2988,   4.49571037,         22.5
   2989,   4.49561501,          23.
   2990,   4.49551964,         23.5
   2991,   4.49542427,          24.
   2992,    4.4953289,         24.5
   2993,   4.49523354,          25.
   2994,   4.49513817,         25.5
   2995,    4.4950428,          26.
   2996,   4.49494743,         26.5
   2997,   4.49485207,          27.
   2998,    4.4947567,         27.5
   2999,   4.49466133,          28.
   3000,   4.49456644,         28.5
   3001,   4.49447107,          29.
   3002,   4.49437571,         29.5
   3003,   4.49428034,          30.
   3004,   4.49418497,         30.5
   3005,    4.4940896,          31.
   3006,   4.49399424,         31.5
   3007,   4.49389887,          32.
   3008,    4.4938035,         32.5
   3009,   4.49370813,          33.
   3010,   4.49361277,         33.5
   3011,    4.4935174,          34.
   3012,   4.49342251,         34.5
   3013,   4.49332714,          35.
   3014,   4.49323177,         35.5
   3015,   4.49313641,          36.
   3016,   4.49304104,         36.5
   3017,   4.49294567,          37.
   3018,    4.4928503,         37.5
   3019,   4.49275494,          38.
   3020,   4.49265957,         38.5
   3021,    4.4925642,          39.
   3022,   4.49246883,         39.5
   3023,   4.49237347,          40.
   3024,    4.4922781,         40.5
   3025,   4.49218321,          41.
   3026,   4.49208784,         41.5
   3027,   4.49199247,          42.
   3028,   4.49189711,         42.5
   3029,   4.49180174,          43.
   3030,   4.49170637,         43.5
   3031,     4.491611,          44.
   3032,   4.49151564,         44.5
   3033,   4.49142027,          45.
   3034,    4.4913249,         45.5
   3035,   4.49122953,          46.
   3036,   4.49113417,         46.5
   3037,   4.49103928,          47.
   3038,   4.49094391,         47.5
   3039,   4.49084854,          48.
   3040,   4.49075317,         48.5
   3041,   4.49065781,          49.
   3042,   4.49056244,         49.5
   3043,    3.9998889,          0.5
   3044,   3.99977756,           1.
   3045,   3.99966645,          1.5
   3046,   3.99955511,           2.
   3047,   3.99944401,          2.5
   3048,   3.99933267,           3.
   3049,   3.99922156,          3.5
   3050,   3.99911022,           4.
   3051,   3.99899912,          4.5
   3052,   3.99888778,           5.
   3053,   3.99877667,          5.5
   3054,   3.99866533,           6.
   3055,   3.99855423,          6.5
   3056,   3.99844289,           7.
   3057,   3.99833179,          7.5
   3058,   3.99822044,           8.
   3059,   3.99810934,          8.5
   3060,     3.997998,           9.
   3061,    3.9978869,          9.5
   3062,   3.99777555,          10.
   3063,   3.99766445,         10.5
   3064,   3.99755311,          11.
   3065,   3.99744201,         11.5
   3066,   3.99733067,          12.
   3067,   3.99721956,         12.5
   3068,   3.99710846,          13.
   3069,   3.99699712,         13.5
   3070,   3.99688601,          14.
   3071,   3.99677467,         14.5
   3072,   3.99666357,          15.
   3073,   3.99655223,         15.5
   3074,   3.99644113,          16.
   3075,   3.99632978,         16.5
   3076,   3.99621868,          17.
   3077,   3.99610734,         17.5
   3078,   3.99599624,          18.
   3079,    3.9958849,         18.5
   3080,   3.99577379,          19.
   3081,   3.99566245,         19.5
   3082,   3.99555135,          20.
   3083,   3.99544001,         20.5
   3084,    3.9953289,          21.
   3085,   3.99521756,         21.5
   3086,   3.99510646,          22.
   3087,   3.99499512,         22.5
   3088,   3.99488401,          23.
   3089,   3.99477267,         23.5
   3090,   3.99466157,          24.
   3091,   3.99455023,         24.5
   3092,   3.99443913,          25.
   3093,   3.99432802,         25.5
   3094,   3.99421668,          26.
   3095,   3.99410558,         26.5
   3096,   3.99399424,          27.
   3097,   3.99388313,         27.5
   3098,   3.99377179,          28.
   3099,   3.99366069,         28.5
   3100,   3.99354935,          29.
   3101,   3.99343824,         29.5
   3102,    3.9933269,          30.
   3103,    3.9932158,         30.5
   3104,   3.99310446,          31.
   3105,   3.99299335,         31.5
   3106,   3.99288201,          32.
   3107,   3.99277091,         32.5
   3108,   3.99265957,          33.
   3109,   3.99254847,         33.5
   3110,   3.99243712,          34.
   3111,   3.99232602,         34.5
   3112,   3.99221468,          35.
   3113,   3.99210358,         35.5
   3114,   3.99199224,          36.
   3115,   3.99188113,         36.5
   3116,   3.99176979,          37.
   3117,   3.99165869,         37.5
   3118,   3.99154758,          38.
   3119,   3.99143624,         38.5
   3120,   3.99132514,          39.
   3121,    3.9912138,         39.5
   3122,    3.9911027,          40.
   3123,   3.99099135,         40.5
   3124,   3.99088025,          41.
   3125,   3.99076891,         41.5
   3126,   3.99065781,          42.
   3127,   3.99054646,         42.5
   3128,   3.99043536,          43.
   3129,   3.99032402,         43.5
   3130,   3.99021292,          44.
   3131,   3.99010158,         44.5
   3132,   3.98999047,          45.
   3133,   3.98987913,         45.5
   3134,   3.98976803,          46.
   3135,   3.98965669,         46.5
   3136,   3.98954558,          47.
   3137,   3.98943424,         47.5
   3138,   3.98932314,          48.
   3139,    3.9892118,         48.5
   3140,   3.98910069,          49.
   3141,   3.98898935,         49.5
   3142,   3.49987292,          0.5
   3143,   3.49974585,           1.
   3144,   3.49961877,          1.5
   3145,   3.49949169,           2.
   3146,   3.49936438,          2.5
   3147,    3.4992373,           3.
   3148,   3.49911022,          3.5
   3149,   3.49898314,           4.
   3150,   3.49885607,          4.5
   3151,   3.49872899,           5.
   3152,   3.49860191,          5.5
   3153,   3.49847484,           6.
   3154,   3.49834752,          6.5
   3155,   3.49822044,           7.
   3156,   3.49809337,          7.5
   3157,   3.49796629,           8.
   3158,   3.49783921,          8.5
   3159,   3.49771214,           9.
   3160,   3.49758506,          9.5
   3161,   3.49745798,          10.
   3162,   3.49733067,         10.5
   3163,   3.49720359,          11.
   3164,   3.49707651,         11.5
   3165,   3.49694943,          12.
   3166,   3.49682236,         12.5
   3167,   3.49669528,          13.
   3168,    3.4965682,         13.5
   3169,   3.49644113,          14.
   3170,   3.49631405,         14.5
   3171,   3.49618673,          15.
   3172,   3.49605966,         15.5
   3173,   3.49593258,          16.
   3174,    3.4958055,         16.5
   3175,   3.49567842,          17.
   3176,   3.49555135,         17.5
   3177,   3.49542427,          18.
   3178,   3.49529719,         18.5
   3179,   3.49516988,          19.
   3180,    3.4950428,         19.5
   3181,   3.49491572,          20.
   3182,   3.49478865,         20.5
   3183,   3.49466157,          21.
   3184,   3.49453449,         21.5
   3185,   3.49440742,          22.
   3186,   3.49428034,         22.5
   3187,   3.49415302,          23.
   3188,   3.49402595,         23.5
   3189,   3.49389887,          24.
   3190,   3.49377179,         24.5
   3191,   3.49364471,          25.
   3192,   3.49351764,         25.5
   3193,   3.49339056,          26.
   3194,   3.49326348,         26.5
   3195,   3.49313641,          27.
   3196,   3.49300909,         27.5
   3197,   3.49288201,          28.
   3198,   3.49275494,         28.5
   3199,   3.49262786,          29.
   3200,   3.49250078,         29.5
   3201,    3.4923737,          30.
   3202,   3.49224663,         30.5
   3203,   3.49211955,          31.
   3204,   3.49199224,         31.5
   3205,   3.49186516,          32.
   3206,   3.49173808,         32.5
   3207,     3.491611,          33.
   3208,   3.49148393,         33.5
   3209,   3.49135685,          34.
   3210,   3.49122977,         34.5
   3211,    3.4911027,          35.
   3212,   3.49097538,         35.5
   3213,    3.4908483,          36.
   3214,   3.49072123,         36.5
   3215,   3.49059415,          37.
   3216,   3.49046707,         37.5
   3217,   3.49033999,          38.
   3218,   3.49021292,         38.5
   3219,   3.49008584,          39.
   3220,   3.48995876,         39.5
   3221,   3.48983145,          40.
   3222,   3.48970437,         40.5
   3223,   3.48957729,          41.
   3224,   3.48945022,         41.5
   3225,   3.48932314,          42.
   3226,   3.48919606,         42.5
   3227,   3.48906898,          43.
   3228,   3.48894191,         43.5
   3229,   3.48881459,          44.
   3230,   3.48868752,         44.5
   3231,   3.48856044,          45.
   3232,   3.48843336,         45.5
   3233,   3.48830628,          46.
   3234,   3.48817921,         46.5
   3235,   3.48805213,          47.
   3236,   3.48792505,         47.5
   3237,   3.48779774,          48.
   3238,   3.48767066,         48.5
   3239,   3.48754358,          49.
   3240,   3.48741651,         49.5
   3241,   2.99977612,          0.5
   3242,   2.99955225,           1.
   3243,   2.99932837,          1.5
   3244,   2.99910426,           2.
   3245,   2.99888039,          2.5
   3246,   2.99865651,           3.
   3247,   2.99843264,          3.5
   3248,   2.99820876,           4.
   3249,   2.99798489,          4.5
   3250,   2.99776077,           5.
   3251,    2.9975369,          5.5
   3252,   2.99731302,           6.
   3253,   2.99708915,          6.5
   3254,   2.99686527,           7.
   3255,    2.9966414,          7.5
   3256,   2.99641728,           8.
   3257,   2.99619341,          8.5
   3258,   2.99596953,           9.
   3259,   2.99574566,          9.5
   3260,   2.99552178,          10.
   3261,   2.99529791,         10.5
   3262,   2.99507403,          11.
   3263,   2.99484992,         11.5
   3264,   2.99462605,          12.
   3265,   2.99440217,         12.5
   3266,    2.9941783,          13.
   3267,   2.99395442,         13.5
   3268,   2.99373055,          14.
   3269,   2.99350643,         14.5
   3270,   2.99328256,          15.
   3271,   2.99305868,         15.5
   3272,   2.99283481,          16.
   3273,   2.99261093,         16.5
   3274,   2.99238706,          17.
   3275,   2.99216294,         17.5
   3276,   2.99193907,          18.
   3277,   2.99171519,         18.5
   3278,   2.99149132,          19.
   3279,   2.99126744,         19.5
   3280,   2.99104357,          20.
   3281,   2.99081969,         20.5
   3282,   2.99059558,          21.
   3283,    2.9903717,         21.5
   3284,   2.99014783,          22.
   3285,   2.98992395,         22.5
   3286,   2.98970008,          23.
   3287,    2.9894762,         23.5
   3288,   2.98925209,          24.
   3289,   2.98902822,         24.5
   3290,   2.98880434,          25.
   3291,   2.98858047,         25.5
   3292,   2.98835659,          26.
   3293,   2.98813272,         26.5
   3294,   2.98790884,          27.
   3295,   2.98768473,         27.5
   3296,   2.98746085,          28.
   3297,   2.98723698,         28.5
   3298,    2.9870131,          29.
   3299,   2.98678923,         29.5
   3300,   2.98656535,          30.
   3301,   2.98634124,         30.5
   3302,   2.98611736,          31.
   3303,   2.98589349,         31.5
   3304,   2.98566961,          32.
   3305,   2.98544574,         32.5
   3306,   2.98522186,          33.
   3307,   2.98499775,         33.5
   3308,   2.98477387,          34.
   3309,      2.98455,         34.5
   3310,   2.98432612,          35.
   3311,   2.98410225,         35.5
   3312,   2.98387837,          36.
   3313,    2.9836545,         36.5
   3314,   2.98343039,          37.
   3315,   2.98320651,         37.5
   3316,   2.98298264,          38.
   3317,   2.98275876,         38.5
   3318,   2.98253489,          39.
   3319,   2.98231101,         39.5
   3320,    2.9820869,          40.
   3321,   2.98186302,         40.5
   3322,   2.98163915,          41.
   3323,   2.98141527,         41.5
   3324,    2.9811914,          42.
   3325,   2.98096752,         42.5
   3326,   2.98074341,          43.
   3327,   2.98051953,         43.5
   3328,   2.98029566,          44.
   3329,   2.98007178,         44.5
   3330,   2.97984791,          45.
   3331,   2.97962403,         45.5
   3332,   2.97940016,          46.
   3333,   2.97917604,         46.5
   3334,   2.97895217,          47.
   3335,   2.97872829,         47.5
   3336,   2.97850442,          48.
   3337,   2.97828054,         48.5
   3338,   2.97805667,          49.
   3339,   2.97783256,         49.5
   3340,   2.49967933,          0.5
   3341,   2.49935865,           1.
   3342,   2.49903774,          1.5
   3343,   2.49871707,           2.
   3344,    2.4983964,          2.5
   3345,   2.49807572,           3.
   3346,   2.49775505,          3.5
   3347,   2.49743414,           4.
   3348,   2.49711347,          4.5
   3349,   2.49679279,           5.
   3350,   2.49647212,          5.5
   3351,   2.49615145,           6.
   3352,   2.49583054,          6.5
   3353,   2.49550986,           7.
   3354,   2.49518919,          7.5
   3355,   2.49486852,           8.
   3356,   2.49454784,          8.5
   3357,   2.49422693,           9.
   3358,   2.49390626,          9.5
   3359,   2.49358559,          10.
   3360,   2.49326491,         10.5
   3361,   2.49294424,          11.
   3362,   2.49262357,         11.5
   3363,   2.49230266,          12.
   3364,   2.49198198,         12.5
   3365,   2.49166131,          13.
   3366,   2.49134064,         13.5
   3367,   2.49101996,          14.
   3368,   2.49069905,         14.5
   3369,   2.49037838,          15.
   3370,   2.49005771,         15.5
   3371,   2.48973703,          16.
   3372,   2.48941636,         16.5
   3373,   2.48909545,          17.
   3374,   2.48877478,         17.5
   3375,    2.4884541,          18.
   3376,   2.48813343,         18.5
   3377,   2.48781276,          19.
   3378,   2.48749185,         19.5
   3379,   2.48717117,          20.
   3380,    2.4868505,         20.5
   3381,   2.48652983,          21.
   3382,   2.48620915,         21.5
   3383,   2.48588824,          22.
   3384,   2.48556757,         22.5
   3385,    2.4852469,          23.
   3386,   2.48492622,         23.5
   3387,   2.48460555,          24.
   3388,   2.48428464,         24.5
   3389,   2.48396397,          25.
   3390,   2.48364329,         25.5
   3391,   2.48332262,          26.
   3392,   2.48300195,         26.5
   3393,   2.48268104,          27.
   3394,   2.48236036,         27.5
   3395,   2.48203969,          28.
   3396,   2.48171902,         28.5
   3397,   2.48139834,          29.
   3398,   2.48107767,         29.5
   3399,   2.48075676,          30.
   3400,   2.48043609,         30.5
   3401,   2.48011541,          31.
   3402,   2.47979474,         31.5
   3403,   2.47947407,          32.
   3404,   2.47915316,         32.5
   3405,   2.47883248,          33.
   3406,   2.47851181,         33.5
   3407,   2.47819114,          34.
   3408,   2.47787046,         34.5
   3409,   2.47754955,          35.
   3410,   2.47722888,         35.5
   3411,   2.47690821,          36.
   3412,   2.47658753,         36.5
   3413,   2.47626686,          37.
   3414,   2.47594595,         37.5
   3415,   2.47562528,          38.
   3416,    2.4753046,         38.5
   3417,   2.47498393,          39.
   3418,   2.47466326,         39.5
   3419,   2.47434235,          40.
   3420,   2.47402167,         40.5
   3421,     2.473701,          41.
   3422,   2.47338033,         41.5
   3423,   2.47305965,          42.
   3424,   2.47273874,         42.5
   3425,   2.47241807,          43.
   3426,    2.4720974,         43.5
   3427,   2.47177672,          44.
   3428,   2.47145605,         44.5
   3429,   2.47113514,          45.
   3430,   2.47081447,         45.5
   3431,   2.47049379,          46.
   3432,   2.47017312,         46.5
   3433,   2.46985245,          47.
   3434,   2.46953177,         47.5
   3435,   2.46921086,          48.
   3436,   2.46889019,         48.5
   3437,   2.46856952,          49.
   3438,   2.46824884,         49.5
   3439,   1.99958253,          0.5
   3440,   1.99916494,           1.
   3441,   1.99874747,          1.5
   3442,   1.99832988,           2.
   3443,   1.99791241,          2.5
   3444,   1.99749482,           3.
   3445,   1.99707735,          3.5
   3446,   1.99665976,           4.
   3447,   1.99624228,          4.5
   3448,   1.99582469,           5.
   3449,   1.99540722,          5.5
   3450,   1.99498963,           6.
   3451,   1.99457216,          6.5
   3452,   1.99415469,           7.
   3453,    1.9937371,          7.5
   3454,   1.99331963,           8.
   3455,   1.99290204,          8.5
   3456,   1.99248457,           9.
   3457,   1.99206698,          9.5
   3458,   1.99164951,          10.
   3459,   1.99123192,         10.5
   3460,   1.99081445,          11.
   3461,   1.99039686,         11.5
   3462,   1.98997939,          12.
   3463,    1.9895618,         12.5
   3464,   1.98914433,          13.
   3465,   1.98872674,         13.5
   3466,   1.98830926,          14.
   3467,   1.98789179,         14.5
   3468,    1.9874742,          15.
   3469,   1.98705673,         15.5
   3470,   1.98663914,          16.
   3471,   1.98622167,         16.5
   3472,   1.98580408,          17.
   3473,   1.98538661,         17.5
   3474,   1.98496902,          18.
   3475,   1.98455155,         18.5
   3476,   1.98413396,          19.
   3477,   1.98371649,         19.5
   3478,    1.9832989,          20.
   3479,   1.98288143,         20.5
   3480,   1.98246396,          21.
   3481,   1.98204637,         21.5
   3482,   1.98162889,          22.
   3483,    1.9812113,         22.5
   3484,   1.98079383,          23.
   3485,   1.98037624,         23.5
   3486,   1.97995877,          24.
   3487,   1.97954118,         24.5
   3488,   1.97912371,          25.
   3489,   1.97870612,         25.5
   3490,   1.97828865,          26.
   3491,   1.97787106,         26.5
   3492,   1.97745359,          27.
   3493,     1.977036,         27.5
   3494,   1.97661853,          28.
   3495,   1.97620106,         28.5
   3496,   1.97578347,          29.
   3497,     1.975366,         29.5
   3498,   1.97494841,          30.
   3499,   1.97453094,         30.5
   3500,   1.97411335,          31.
   3501,   1.97369587,         31.5
   3502,   1.97327828,          32.
   3503,   1.97286081,         32.5
   3504,   1.97244322,          33.
   3505,   1.97202575,         33.5
   3506,   1.97160816,          34.
   3507,   1.97119069,         34.5
   3508,   1.97077322,          35.
   3509,   1.97035563,         35.5
   3510,   1.96993816,          36.
   3511,   1.96952057,         36.5
   3512,    1.9691031,          37.
   3513,   1.96868551,         37.5
   3514,   1.96826804,          38.
   3515,   1.96785045,         38.5
   3516,   1.96743298,          39.
   3517,   1.96701539,         39.5
   3518,   1.96659791,          40.
   3519,   1.96618032,         40.5
   3520,   1.96576285,          41.
   3521,   1.96534526,         41.5
   3522,   1.96492779,          42.
   3523,   1.96451032,         42.5
   3524,   1.96409273,          43.
   3525,   1.96367526,         43.5
   3526,   1.96325767,          44.
   3527,    1.9628402,         44.5
   3528,   1.96242261,          45.
   3529,   1.96200514,         45.5
   3530,   1.96158755,          46.
   3531,   1.96117008,         46.5
   3532,   1.96075249,          47.
   3533,   1.96033502,         47.5
   3534,   1.95991743,          48.
   3535,   1.95949996,         48.5
   3536,   1.95908248,          49.
   3537,   1.95866489,         49.5
   3538,   1.49948561,          0.5
   3539,   1.49897134,           1.
   3540,   1.49845695,          1.5
   3541,   1.49794269,           2.
   3542,    1.4974283,          2.5
   3543,   1.49691403,           3.
   3544,   1.49639964,          3.5
   3545,   1.49588537,           4.
   3546,   1.49537098,          4.5
   3547,   1.49485672,           5.
   3548,   1.49434233,          5.5
   3549,   1.49382806,           6.
   3550,   1.49331367,          6.5
   3551,   1.49279928,           7.
   3552,   1.49228501,          7.5
   3553,   1.49177063,           8.
   3554,   1.49125636,          8.5
   3555,   1.49074197,           9.
   3556,    1.4902277,          9.5
   3557,   1.48971331,          10.
   3558,   1.48919904,         10.5
   3559,   1.48868465,          11.
   3560,   1.48817039,         11.5
   3561,     1.487656,          12.
   3562,   1.48714173,         12.5
   3563,   1.48662734,          13.
   3564,   1.48611295,         13.5
   3565,   1.48559868,          14.
   3566,    1.4850843,         14.5
   3567,   1.48457003,          15.
   3568,   1.48405564,         15.5
   3569,   1.48354137,          16.
   3570,   1.48302698,         16.5
   3571,   1.48251271,          17.
   3572,   1.48199832,         17.5
   3573,   1.48148406,          18.
   3574,   1.48096967,         18.5
   3575,    1.4804554,          19.
   3576,   1.47994101,         19.5
   3577,   1.47942662,          20.
   3578,   1.47891235,         20.5
   3579,   1.47839797,          21.
   3580,    1.4778837,         21.5
   3581,   1.47736931,          22.
   3582,   1.47685504,         22.5
   3583,   1.47634065,          23.
   3584,   1.47582638,         23.5
   3585,   1.47531199,          24.
   3586,   1.47479773,         24.5
   3587,   1.47428334,          25.
   3588,   1.47376907,         25.5
   3589,   1.47325468,          26.
   3590,   1.47274029,         26.5
   3591,   1.47222602,          27.
   3592,   1.47171164,         27.5
   3593,   1.47119737,          28.
   3594,   1.47068298,         28.5
   3595,   1.47016871,          29.
   3596,   1.46965432,         29.5
   3597,   1.46914005,          30.
   3598,   1.46862566,         30.5
   3599,    1.4681114,          31.
   3600,   1.46759701,         31.5
   3601,   1.46708274,          32.
   3602,   1.46656835,         32.5
   3603,   1.46605396,          33.
   3604,   1.46553969,         33.5
   3605,   1.46502531,          34.
   3606,   1.46451104,         34.5
   3607,   1.46399665,          35.
   3608,   1.46348238,         35.5
   3609,   1.46296799,          36.
   3610,   1.46245372,         36.5
   3611,   1.46193933,          37.
   3612,   1.46142507,         37.5
   3613,   1.46091068,          38.
   3614,   1.46039641,         38.5
   3615,   1.45988202,          39.
   3616,   1.45936763,         39.5
   3617,   1.45885336,          40.
   3618,   1.45833898,         40.5
   3619,   1.45782471,          41.
   3620,   1.45731032,         41.5
   3621,   1.45679605,          42.
   3622,   1.45628166,         42.5
   3623,   1.45576739,          43.
   3624,   1.45525301,         43.5
   3625,   1.45473874,          44.
   3626,   1.45422435,         44.5
   3627,   1.45371008,          45.
   3628,   1.45319569,         45.5
   3629,    1.4526813,          46.
   3630,   1.45216703,         46.5
   3631,   1.45165265,          47.
   3632,   1.45113838,         47.5
   3633,   1.45062399,          48.
   3634,   1.45010972,         48.5
   3635,   1.44959533,          49.
   3636,   1.44908106,         49.5
   3637,  0.999388874,          0.5
   3638,  0.998777747,           1.
   3639,  0.998166561,          1.5
   3640,  0.997555435,           2.
   3641,  0.996944308,          2.5
   3642,  0.996333182,           3.
   3643,  0.995721996,          3.5
   3644,  0.995110869,           4.
   3645,  0.994499743,          4.5
   3646,  0.993888617,           5.
   3647,   0.99327749,          5.5
   3648,  0.992666304,           6.
   3649,  0.992055178,          6.5
   3650,  0.991444051,           7.
   3651,  0.990832925,          7.5
   3652,  0.990221739,           8.
   3653,  0.989610612,          8.5
   3654,  0.988999486,           9.
   3655,   0.98838836,          9.5
   3656,  0.987777174,          10.
   3657,  0.987166047,         10.5
   3658,  0.986554921,          11.
   3659,  0.985943794,         11.5
   3660,  0.985332668,          12.
   3661,  0.984721482,         12.5
   3662,  0.984110355,          13.
   3663,  0.983499229,         13.5
   3664,  0.982888103,          14.
   3665,  0.982276917,         14.5
   3666,   0.98166579,          15.
   3667,  0.981054664,         15.5
   3668,  0.980443537,          16.
   3669,  0.979832411,         16.5
   3670,  0.979221225,          17.
   3671,  0.978610098,         17.5
   3672,  0.977998972,          18.
   3673,  0.977387846,         18.5
   3674,  0.976776659,          19.
   3675,  0.976165533,         19.5
   3676,  0.975554407,          20.
   3677,   0.97494328,         20.5
   3678,  0.974332094,          21.
   3679,  0.973720968,         21.5
   3680,  0.973109841,          22.
   3681,  0.972498715,         22.5
   3682,  0.971887589,          23.
   3683,  0.971276402,         23.5
   3684,  0.970665276,          24.
   3685,   0.97005415,         24.5
   3686,  0.969443023,          25.
   3687,  0.968831837,         25.5
   3688,  0.968220711,          26.
   3689,  0.967609584,         26.5
   3690,  0.966998458,          27.
   3691,  0.966387331,         27.5
   3692,  0.965776145,          28.
   3693,  0.965165019,         28.5
   3694,  0.964553893,          29.
   3695,  0.963942766,         29.5
   3696,   0.96333158,          30.
   3697,  0.962720454,         30.5
   3698,  0.962109327,          31.
   3699,  0.961498201,         31.5
   3700,  0.960887015,          32.
   3701,  0.960275888,         32.5
   3702,  0.959664762,          33.
   3703,  0.959053636,         33.5
   3704,  0.958442509,          34.
   3705,  0.957831323,         34.5
   3706,  0.957220197,          35.
   3707,   0.95660907,         35.5
   3708,  0.955997944,          36.
   3709,  0.955386758,         36.5
   3710,  0.954775631,          37.
   3711,  0.954164505,         37.5
   3712,  0.953553379,          38.
   3713,  0.952942252,         38.5
   3714,  0.952331066,          39.
   3715,   0.95171994,         39.5
   3716,  0.951108813,          40.
   3717,  0.950497687,         40.5
   3718,  0.949886501,          41.
   3719,  0.949275374,         41.5
   3720,  0.948664248,          42.
   3721,  0.948053122,         42.5
   3722,  0.947441995,          43.
   3723,  0.946830809,         43.5
   3724,  0.946219683,          44.
   3725,  0.945608556,         44.5
   3726,   0.94499743,          45.
   3727,  0.944386244,         45.5
   3728,  0.943775117,          46.
   3729,  0.943163991,         46.5
   3730,  0.942552865,          47.
   3731,  0.941941679,         47.5
   3732,  0.941330552,          48.
   3733,  0.940719426,         48.5
   3734,  0.940108299,          49.
   3735,  0.939497173,         49.5
   3736,  0.499292046,          0.5
   3737,  0.498584092,           1.
   3738,  0.497876167,          1.5
   3739,  0.497168213,           2.
   3740,  0.496460259,          2.5
   3741,  0.495752305,           3.
   3742,   0.49504438,          3.5
   3743,  0.494336426,           4.
   3744,  0.493628472,          4.5
   3745,  0.492920518,           5.
   3746,  0.492212594,          5.5
   3747,  0.491504639,           6.
   3748,  0.490796685,          6.5
   3749,  0.490088731,           7.
   3750,  0.489380807,          7.5
   3751,  0.488672853,           8.
   3752,  0.487964898,          8.5
   3753,  0.487256944,           9.
   3754,   0.48654902,          9.5
   3755,  0.485841066,          10.
   3756,  0.485133111,         10.5
   3757,  0.484425157,          11.
   3758,  0.483717233,         11.5
   3759,  0.483009279,          12.
   3760,  0.482301325,         12.5
   3761,   0.48159337,          13.
   3762,  0.480885446,         13.5
   3763,  0.480177492,          14.
   3764,  0.479469538,         14.5
   3765,  0.478761584,          15.
   3766,  0.478053659,         15.5
   3767,  0.477345705,          16.
   3768,  0.476637751,         16.5
   3769,  0.475929797,          17.
   3770,  0.475221872,         17.5
   3771,  0.474513918,          18.
   3772,  0.473805964,         18.5
   3773,   0.47309801,          19.
   3774,  0.472390085,         19.5
   3775,  0.471682131,          20.
   3776,  0.470974177,         20.5
   3777,  0.470266223,          21.
   3778,  0.469558299,         21.5
   3779,  0.468850344,          22.
   3780,   0.46814239,         22.5
   3781,  0.467434436,          23.
   3782,  0.466726512,         23.5
   3783,  0.466018558,          24.
   3784,  0.465310603,         24.5
   3785,  0.464602649,          25.
   3786,  0.463894725,         25.5
   3787,  0.463186771,          26.
   3788,  0.462478817,         26.5
   3789,  0.461770862,          27.
   3790,  0.461062938,         27.5
   3791,  0.460354984,          28.
   3792,   0.45964703,         28.5
   3793,  0.458939075,          29.
   3794,  0.458231151,         29.5
   3795,  0.457523197,          30.
   3796,  0.456815243,         30.5
   3797,  0.456107289,          31.
   3798,  0.455399364,         31.5
   3799,   0.45469141,          32.
   3800,  0.453983456,         32.5
   3801,  0.453275502,          33.
   3802,  0.452567577,         33.5
   3803,  0.451859623,          34.
   3804,  0.451151669,         34.5
   3805,  0.450443715,          35.
   3806,   0.44973579,         35.5
   3807,  0.449027836,          36.
   3808,  0.448319882,         36.5
   3809,  0.447611928,          37.
   3810,  0.446904004,         37.5
   3811,  0.446196049,          38.
   3812,  0.445488095,         38.5
   3813,  0.444780141,          39.
   3814,  0.444072217,         39.5
   3815,  0.443364263,          40.
   3816,  0.442656308,         40.5
   3817,  0.441948354,          41.
   3818,   0.44124043,         41.5
   3819,  0.440532476,          42.
   3820,  0.439824522,         42.5
   3821,  0.439116567,          43.
   3822,  0.438408643,         43.5
   3823,  0.437700689,          44.
   3824,  0.436992735,         44.5
   3825,  0.436284781,          45.
   3826,  0.435576856,         45.5
   3827,  0.434868902,          46.
   3828,  0.434160948,         46.5
   3829,  0.433452994,          47.
   3830,  0.432745069,         47.5
   3831,  0.432037115,          48.
   3832,  0.431329161,         48.5
   3833,  0.430621207,          49.
   3834,  0.429913282,         49.5
   3835, -0.000804753625,          0.5
   3836, -0.00160950725,           1.
   3837, -0.00241426076,          1.5
   3838, -0.0032190145,           2.
   3839, -0.00402376801,          2.5
   3840, -0.00482852152,           3.
   3841, -0.00563327549,          3.5
   3842, -0.006438029,           4.
   3843, -0.00724278251,          4.5
   3844, -0.00804753602,           5.
   3845, -0.00885228999,          5.5
   3846, -0.00965704303,           6.
   3847, -0.010461797,          6.5
   3848, -0.011266551,           7.
   3849, -0.012071304,          7.5
   3850, -0.012876058,           8.
   3851, -0.013680812,          8.5
   3852, -0.014485565,           9.
   3853, -0.015290319,          9.5
   3854, -0.016095072,          10.
   3855, -0.016899826,         10.5
   3856,  -0.01770458,          11.
   3857, -0.018509334,         11.5
   3858, -0.0193140861,          12.
   3859,  -0.02011884,         12.5
   3860, -0.020923594,          13.
   3861, -0.021728348,         13.5
   3862, -0.022533102,          14.
   3863, -0.0233378559,         14.5
   3864, -0.024142608,          15.
   3865, -0.024947362,         15.5
   3866, -0.025752116,          16.
   3867,  -0.02655687,         16.5
   3868, -0.0273616239,          17.
   3869, -0.0281663761,         17.5
   3870,  -0.02897113,          18.
   3871, -0.029775884,         18.5
   3872, -0.030580638,          19.
   3873, -0.031385392,         19.5
   3874, -0.0321901441,          20.
   3875, -0.0329948999,         20.5
   3876, -0.033799652,          21.
   3877, -0.0346044041,         21.5
   3878,  -0.03540916,          22.
   3879, -0.0362139121,         22.5
   3880, -0.0370186679,          23.
   3881,  -0.03782342,         23.5
   3882, -0.0386281721,          24.
   3883, -0.039432928,         24.5
   3884, -0.0402376801,          25.
   3885, -0.0410424359,         25.5
   3886, -0.041847188,          26.
   3887, -0.0426519401,         26.5
   3888, -0.043456696,          27.
   3889, -0.0442614481,         27.5
   3890, -0.0450662039,          28.
   3891, -0.045870956,         28.5
   3892, -0.0466757119,          29.
   3893, -0.047480464,         29.5
   3894, -0.0482852161,          30.
   3895, -0.0490899719,         30.5
   3896, -0.049894724,          31.
   3897, -0.0506994799,         31.5
   3898, -0.051504232,          32.
   3899, -0.0523089841,         32.5
   3900, -0.0531137399,          33.
   3901, -0.053918492,         33.5
   3902, -0.0547232479,          34.
   3903,    -0.055528,         34.5
   3904, -0.0563327521,          35.
   3905, -0.0571375079,         35.5
   3906, -0.0579422601,          36.
   3907, -0.0587470159,         36.5
   3908, -0.059551768,          37.
   3909, -0.0603565201,         37.5
   3910, -0.061161276,          38.
   3911, -0.0619660281,         38.5
   3912, -0.0627707839,          39.
   3913, -0.063575536,         39.5
   3914, -0.0643802881,          40.
   3915, -0.0651850402,         40.5
   3916, -0.0659897998,          41.
   3917, -0.0667945519,         41.5
   3918, -0.067599304,          42.
   3919, -0.0684040561,         42.5
   3920, -0.0692088082,          43.
   3921, -0.0700135678,         43.5
   3922, -0.0708183199,          44.
   3923, -0.071623072,         44.5
   3924, -0.0724278241,          45.
   3925, -0.0732325763,         45.5
   3926, -0.0740373358,          46.
   3927, -0.0748420879,         46.5
   3928,  -0.07564684,          47.
   3929, -0.0764515921,         47.5
   3930, -0.0772563443,          48.
   3931, -0.0780611038,         48.5
   3932, -0.0788658559,          49.
   3933, -0.079670608,         49.5
   3934,  -0.50090158,          0.5
   3935,   -0.5018031,           1.
   3936,  -0.50270468,          1.5
   3937,  -0.50360626,           2.
   3938,  -0.50450778,          2.5
   3939,  -0.50540936,           3.
   3940,  -0.50631094,          3.5
   3941,  -0.50721246,           4.
   3942,  -0.50811404,          4.5
   3943,  -0.50901562,           5.
   3944,  -0.50991714,          5.5
   3945,  -0.51081872,           6.
   3946,   -0.5117203,          6.5
   3947,  -0.51262182,           7.
   3948,   -0.5135234,          7.5
   3949,  -0.51442498,           8.
   3950,   -0.5153265,          8.5
   3951,  -0.51622808,           9.
   3952,  -0.51712966,          9.5
   3953,  -0.51803118,          10.
   3954,  -0.51893276,         10.5
   3955,  -0.51983434,          11.
   3956, -0.520735919,         11.5
   3957,  -0.52163744,          12.
   3958,  -0.52253902,         12.5
   3959, -0.523440599,          13.
   3960,  -0.52434212,         13.5
   3961,   -0.5252437,          14.
   3962, -0.526145279,         14.5
   3963,   -0.5270468,          15.
   3964,  -0.52794838,         15.5
   3965, -0.528849959,          16.
   3966,  -0.52975148,         16.5
   3967, -0.530653059,          17.
   3968, -0.531554639,         17.5
   3969,  -0.53245616,          18.
   3970, -0.533357739,         18.5
   3971, -0.534259319,          19.
   3972,  -0.53516084,         19.5
   3973, -0.536062419,          20.
   3974, -0.536963999,         20.5
   3975,  -0.53786552,          21.
   3976, -0.538767099,         21.5
   3977, -0.539668679,          22.
   3978, -0.540570199,         22.5
   3979, -0.541471779,          23.
   3980, -0.542373359,         23.5
   3981, -0.543274879,          24.
   3982, -0.544176459,         24.5
   3983, -0.545078039,          25.
   3984, -0.545979559,         25.5
   3985, -0.546881139,          26.
   3986, -0.547782719,         26.5
   3987, -0.548684239,          27.
   3988, -0.549585819,         27.5
   3989, -0.550487399,          28.
   3990, -0.551388919,         28.5
   3991, -0.552290499,          29.
   3992, -0.553192079,         29.5
   3993, -0.554093599,          30.
   3994, -0.554995179,         30.5
   3995, -0.555896759,          31.
   3996, -0.556798339,         31.5
   3997, -0.557699859,          32.
   3998, -0.558601439,         32.5
   3999, -0.559503019,          33.
   4000, -0.560404539,         33.5
   4001, -0.561306119,          34.
   4002, -0.562207699,         34.5
   4003, -0.563109219,          35.
   4004, -0.564010799,         35.5
   4005, -0.564912379,          36.
   4006, -0.565813899,         36.5
   4007, -0.566715479,          37.
   4008, -0.567617059,         37.5
   4009, -0.568518579,          38.
   4010, -0.569420159,         38.5
   4011, -0.570321739,          39.
   4012, -0.571223259,         39.5
   4013, -0.572124839,          40.
   4014, -0.573026419,         40.5
   4015, -0.573927939,          41.
   4016, -0.574829519,         41.5
   4017, -0.575731099,          42.
   4018, -0.576632619,         42.5
   4019, -0.577534199,          43.
   4020, -0.578435779,         43.5
   4021, -0.579337299,          44.
   4022, -0.580238879,         44.5
   4023, -0.581140459,          45.
   4024, -0.582041979,         45.5
   4025, -0.582943559,          46.
   4026, -0.583845139,         46.5
   4027, -0.584746659,          47.
   4028, -0.585648239,         47.5
   4029, -0.586549819,          48.
   4030, -0.587451339,         48.5
   4031, -0.588352919,          49.
   4032, -0.589254498,         49.5
   4033,  -1.00099838,          0.5
   4034,  -1.00199676,           1.
   4035,  -1.00299513,          1.5
   4036,  -1.00399351,           2.
   4037,  -1.00499189,          2.5
   4038,  -1.00599015,           3.
   4039,  -1.00698853,          3.5
   4040,   -1.0079869,           4.
   4041,  -1.00898528,          4.5
   4042,  -1.00998366,           5.
   4043,  -1.01098204,          5.5
   4044,  -1.01198041,           6.
   4045,  -1.01297879,          6.5
   4046,  -1.01397717,           7.
   4047,  -1.01497555,          7.5
   4048,  -1.01597393,           8.
   4049,   -1.0169723,          8.5
   4050,  -1.01797056,           9.
   4051,  -1.01896894,          9.5
   4052,  -1.01996732,          10.
   4053,   -1.0209657,         10.5
   4054,  -1.02196407,          11.
   4055,  -1.02296245,         11.5
   4056,  -1.02396083,          12.
   4057,  -1.02495921,         12.5
   4058,  -1.02595758,          13.
   4059,  -1.02695596,         13.5
   4060,  -1.02795434,          14.
   4061,   -1.0289526,         14.5
   4062,  -1.02995098,          15.
   4063,  -1.03094935,         15.5
   4064,  -1.03194773,          16.
   4065,  -1.03294611,         16.5
   4066,  -1.03394449,          17.
   4067,  -1.03494287,         17.5
   4068,  -1.03594124,          18.
   4069,  -1.03693962,         18.5
   4070,    -1.037938,          19.
   4071,  -1.03893638,         19.5
   4072,  -1.03993464,          20.
   4073,  -1.04093301,         20.5
   4074,  -1.04193139,          21.
   4075,  -1.04292977,         21.5
   4076,  -1.04392815,          22.
   4077,  -1.04492652,         22.5
   4078,   -1.0459249,          23.
   4079,  -1.04692328,         23.5
   4080,  -1.04792166,          24.
   4081,  -1.04892004,         24.5
   4082,  -1.04991841,          25.
   4083,  -1.05091679,         25.5
   4084,  -1.05191505,          26.
   4085,  -1.05291343,         26.5
   4086,  -1.05391181,          27.
   4087,  -1.05491018,         27.5
   4088,  -1.05590856,          28.
   4089,  -1.05690694,         28.5
   4090,  -1.05790532,          29.
   4091,  -1.05890369,         29.5
   4092,  -1.05990207,          30.
   4093,  -1.06090045,         30.5
   4094,  -1.06189883,          31.
   4095,  -1.06289709,         31.5
   4096,  -1.06389546,          32.
   4097,  -1.06489384,         32.5
   4098,  -1.06589222,          33.
   4099,   -1.0668906,         33.5
   4100,  -1.06788898,          34.
   4101,  -1.06888735,         34.5
   4102,  -1.06988573,          35.
   4103,  -1.07088411,         35.5
   4104,  -1.07188249,          36.
   4105,  -1.07288086,         36.5
   4106,  -1.07387912,          37.
   4107,   -1.0748775,         37.5
   4108,  -1.07587588,          38.
   4109,  -1.07687426,         38.5
   4110,  -1.07787263,          39.
   4111,  -1.07887101,         39.5
   4112,  -1.07986939,          40.
   4113,  -1.08086777,         40.5
   4114,  -1.08186615,          41.
   4115,  -1.08286452,         41.5
   4116,   -1.0838629,          42.
   4117,  -1.08486128,         42.5
   4118,  -1.08585954,          43.
   4119,  -1.08685791,         43.5
   4120,  -1.08785629,          44.
   4121,  -1.08885467,         44.5
   4122,  -1.08985305,          45.
   4123,  -1.09085143,         45.5
   4124,   -1.0918498,          46.
   4125,  -1.09284818,         46.5
   4126,  -1.09384656,          47.
   4127,  -1.09484494,         47.5
   4128,  -1.09584332,          48.
   4129,  -1.09684157,         48.5
   4130,  -1.09783995,          49.
   4131,  -1.09883833,         49.5
   4132,  -1.50109518,          0.5
   4133,  -1.50219035,           1.
   4134,  -1.50328553,          1.5
   4135,   -1.5043807,           2.
   4136,  -1.50547588,          2.5
   4137,  -1.50657105,           3.
   4138,  -1.50766623,          3.5
   4139,  -1.50876141,           4.
   4140,  -1.50985658,          4.5
   4141,  -1.51095176,           5.
   4142,  -1.51204693,          5.5
   4143,  -1.51314211,           6.
   4144,  -1.51423728,          6.5
   4145,  -1.51533246,           7.
   4146,  -1.51642764,          7.5
   4147,  -1.51752281,           8.
   4148,  -1.51861799,          8.5
   4149,  -1.51971316,           9.
   4150,  -1.52080834,          9.5
   4151,  -1.52190351,          10.
   4152,  -1.52299869,         10.5
   4153,  -1.52409387,          11.
   4154,  -1.52518904,         11.5
   4155,  -1.52628422,          12.
   4156,  -1.52737939,         12.5
   4157,  -1.52847457,          13.
   4158,  -1.52956975,         13.5
   4159,  -1.53066492,          14.
   4160,   -1.5317601,         14.5
   4161,  -1.53285527,          15.
   4162,  -1.53395045,         15.5
   4163,  -1.53504562,          16.
   4164,   -1.5361408,         16.5
   4165,  -1.53723598,          17.
   4166,  -1.53833115,         17.5
   4167,  -1.53942633,          18.
   4168,   -1.5405215,         18.5
   4169,  -1.54161656,          19.
   4170,  -1.54271173,         19.5
   4171,  -1.54380691,          20.
   4172,  -1.54490209,         20.5
   4173,  -1.54599726,          21.
   4174,  -1.54709244,         21.5
   4175,  -1.54818761,          22.
   4176,  -1.54928279,         22.5
   4177,  -1.55037796,          23.
   4178,  -1.55147314,         23.5
   4179,  -1.55256832,          24.
   4180,  -1.55366349,         24.5
   4181,  -1.55475867,          25.
   4182,  -1.55585384,         25.5
   4183,  -1.55694902,          26.
   4184,   -1.5580442,         26.5
   4185,  -1.55913937,          27.
   4186,  -1.56023455,         27.5
   4187,  -1.56132972,          28.
   4188,   -1.5624249,         28.5
   4189,  -1.56352007,          29.
   4190,  -1.56461525,         29.5
   4191,  -1.56571043,          30.
   4192,   -1.5668056,         30.5
   4193,  -1.56790078,          31.
   4194,  -1.56899595,         31.5
   4195,  -1.57009113,          32.
   4196,   -1.5711863,         32.5
   4197,  -1.57228148,          33.
   4198,  -1.57337666,         33.5
   4199,  -1.57447183,          34.
   4200,  -1.57556701,         34.5
   4201,  -1.57666218,          35.
   4202,  -1.57775736,         35.5
   4203,  -1.57885253,          36.
   4204,  -1.57994771,         36.5
   4205,  -1.58104289,          37.
   4206,  -1.58213806,         37.5
   4207,  -1.58323324,          38.
   4208,  -1.58432841,         38.5
   4209,  -1.58542359,          39.
   4210,  -1.58651876,         39.5
   4211,  -1.58761394,          40.
   4212,  -1.58870912,         40.5
   4213,  -1.58980429,          41.
   4214,  -1.59089947,         41.5
   4215,  -1.59199464,          42.
   4216,  -1.59308982,         42.5
   4217,  -1.59418499,          43.
   4218,  -1.59528017,         43.5
   4219,  -1.59637535,          44.
   4220,  -1.59747052,         44.5
   4221,   -1.5985657,          45.
   4222,  -1.59966087,         45.5
   4223,  -1.60075605,          46.
   4224,  -1.60185122,         46.5
   4225,   -1.6029464,          47.
   4226,  -1.60404158,         47.5
   4227,  -1.60513675,          48.
   4228,  -1.60623193,         48.5
   4229,   -1.6073271,          49.
   4230,  -1.60842228,         49.5
   4231,  -2.00119209,          0.5
   4232,  -2.00238395,           1.
   4233,  -2.00357604,          1.5
   4234,  -2.00476789,           2.
   4235,  -2.00595999,          2.5
   4236,  -2.00715184,           3.
   4237,  -2.00834394,          3.5
   4238,  -2.00953579,           4.
   4239,  -2.01072788,          4.5
   4240,  -2.01191974,           5.
   4241,  -2.01311183,          5.5
   4242,  -2.01430368,           6.
   4243,  -2.01549578,          6.5
   4244,  -2.01668763,           7.
   4245,  -2.01787972,          7.5
   4246,  -2.01907158,           8.
   4247,  -2.02026367,          8.5
   4248,  -2.02145576,           9.
   4249,  -2.02264762,          9.5
   4250,  -2.02383971,          10.
   4251,  -2.02503157,         10.5
   4252,  -2.02622366,          11.
   4253,  -2.02741551,         11.5
   4254,  -2.02860761,          12.
   4255,  -2.02979946,         12.5
   4256,  -2.03099155,          13.
   4257,  -2.03218341,         13.5
   4258,   -2.0333755,          14.
   4259,  -2.03456736,         14.5
   4260,  -2.03575945,          15.
   4261,   -2.0369513,         15.5
   4262,   -2.0381434,          16.
   4263,  -2.03933549,         16.5
   4264,  -2.04052734,          17.
   4265,  -2.04171944,         17.5
   4266,  -2.04291129,          18.
   4267,  -2.04410338,         18.5
   4268,  -2.04529524,          19.
   4269,  -2.04648733,         19.5
   4270,  -2.04767919,          20.
   4271,  -2.04887128,         20.5
   4272,  -2.05006313,          21.
   4273,  -2.05125523,         21.5
   4274,  -2.05244708,          22.
   4275,  -2.05363917,         22.5
   4276,  -2.05483103,          23.
   4277,  -2.05602312,         23.5
   4278,  -2.05721498,          24.
   4279,  -2.05840707,         24.5
   4280,  -2.05959916,          25.
   4281,  -2.06079102,         25.5
   4282,  -2.06198311,          26.
   4283,  -2.06317496,         26.5
   4284,  -2.06436706,          27.
   4285,  -2.06555891,         27.5
   4286,    -2.066751,          28.
   4287,  -2.06794286,         28.5
   4288,  -2.06913495,          29.
   4289,  -2.07032681,         29.5
   4290,   -2.0715189,          30.
   4291,  -2.07271075,         30.5
   4292,  -2.07390285,          31.
   4293,   -2.0750947,         31.5
   4294,  -2.07628679,          32.
   4295,  -2.07747865,         32.5
   4296,  -2.07867074,          33.
   4297,  -2.07986283,         33.5
   4298,  -2.08105469,          34.
   4299,  -2.08224678,         34.5
   4300,  -2.08343863,          35.
   4301,  -2.08463073,         35.5
   4302,  -2.08582258,          36.
   4303,  -2.08701468,         36.5
   4304,  -2.08820653,          37.
   4305,  -2.08939862,         37.5
   4306,  -2.09059048,          38.
   4307,  -2.09178257,         38.5
   4308,  -2.09297442,          39.
   4309,  -2.09416652,         39.5
   4310,  -2.09535837,          40.
   4311,  -2.09655046,         40.5
   4312,  -2.09774256,          41.
   4313,  -2.09893441,         41.5
   4314,   -2.1001265,          42.
   4315,  -2.10131836,         42.5
   4316,  -2.10251045,          43.
   4317,  -2.10370231,         43.5
   4318,   -2.1048944,          44.
   4319,  -2.10608625,         44.5
   4320,  -2.10727835,          45.
   4321,   -2.1084702,         45.5
   4322,  -2.10966229,          46.
   4323,  -2.11085415,         46.5
   4324,  -2.11204624,          47.
   4325,   -2.1132381,         47.5
   4326,  -2.11443019,          48.
   4327,  -2.11562204,         48.5
   4328,  -2.11681414,          49.
   4329,  -2.11800623,         49.5
   4330,  -2.50128889,          0.5
   4331,  -2.50257754,           1.
   4332,  -2.50386643,          1.5
   4333,  -2.50515509,           2.
   4334,  -2.50644398,          2.5
   4335,  -2.50773263,           3.
   4336,  -2.50902152,          3.5
   4337,  -2.51031041,           4.
   4338,  -2.51159906,          4.5
   4339,  -2.51288795,           5.
   4340,  -2.51417661,          5.5
   4341,   -2.5154655,           6.
   4342,  -2.51675415,          6.5
   4343,  -2.51804304,           7.
   4344,  -2.51933193,          7.5
   4345,  -2.52062058,           8.
   4346,  -2.52190948,          8.5
   4347,  -2.52319813,           9.
   4348,  -2.52448702,          9.5
   4349,  -2.52577567,          10.
   4350,  -2.52706456,         10.5
   4351,  -2.52835321,          11.
   4352,  -2.52964211,         11.5
   4353,    -2.530931,          12.
   4354,  -2.53221965,         12.5
   4355,  -2.53350854,          13.
   4356,  -2.53479719,         13.5
   4357,  -2.53608608,          14.
   4358,  -2.53737473,         14.5
   4359,  -2.53866363,          15.
   4360,  -2.53995252,         15.5
   4361,  -2.54124117,          16.
   4362,  -2.54253006,         16.5
   4363,  -2.54381871,          17.
   4364,   -2.5451076,         17.5
   4365,  -2.54639626,          18.
   4366,  -2.54768515,         18.5
   4367,  -2.54897404,          19.
   4368,  -2.55026269,         19.5
   4369,  -2.55155158,          20.
   4370,  -2.55284023,         20.5
   4371,  -2.55412912,          21.
   4372,  -2.55541778,         21.5
   4373,  -2.55670667,          22.
   4374,  -2.55799556,         22.5
   4375,  -2.55928421,          23.
   4376,   -2.5605731,         23.5
   4377,  -2.56186175,          24.
   4378,  -2.56315064,         24.5
   4379,   -2.5644393,          25.
   4380,  -2.56572819,         25.5
   4381,  -2.56701708,          26.
   4382,  -2.56830573,         26.5
   4383,  -2.56959462,          27.
   4384,  -2.57088327,         27.5
   4385,  -2.57217216,          28.
   4386,  -2.57346082,         28.5
   4387,  -2.57474971,          29.
   4388,   -2.5760386,         29.5
   4389,  -2.57732725,          30.
   4390,  -2.57861614,         30.5
   4391,  -2.57990479,          31.
   4392,  -2.58119369,         31.5
   4393,  -2.58248234,          32.
   4394,  -2.58377123,         32.5
   4395,  -2.58505988,          33.
   4396,  -2.58634877,         33.5
   4397,  -2.58763766,          34.
   4398,  -2.58892632,         34.5
   4399,  -2.59021521,          35.
   4400,  -2.59150386,         35.5
   4401,  -2.59279275,          36.
   4402,   -2.5940814,         36.5
   4403,  -2.59537029,          37.
   4404,  -2.59665918,         37.5
   4405,  -2.59794784,          38.
   4406,  -2.59923673,         38.5
   4407,  -2.60052538,          39.
   4408,  -2.60181427,         39.5
   4409,  -2.60310292,          40.
   4410,  -2.60439181,         40.5
   4411,   -2.6056807,          41.
   4412,  -2.60696936,         41.5
   4413,  -2.60825825,          42.
   4414,   -2.6095469,         42.5
   4415,  -2.61083579,          43.
   4416,  -2.61212444,         43.5
   4417,  -2.61341333,          44.
   4418,  -2.61470222,         44.5
   4419,  -2.61599088,          45.
   4420,  -2.61727977,         45.5
   4421,  -2.61856842,          46.
   4422,  -2.61985731,         46.5
   4423,  -2.62114596,          47.
   4424,  -2.62243485,         47.5
   4425,  -2.62372375,          48.
   4426,   -2.6250124,         48.5
   4427,  -2.62630129,          49.
   4428,  -2.62758994,         49.5
   4429,  -3.00138569,          0.5
   4430,  -3.00277114,           1.
   4431,  -3.00415683,          1.5
   4432,  -3.00554228,           2.
   4433,  -3.00692797,          2.5
   4434,  -3.00831366,           3.
   4435,  -3.00969911,          3.5
   4436,  -3.01108479,           4.
   4437,  -3.01247025,          4.5
   4438,  -3.01385593,           5.
   4439,  -3.01524162,          5.5
   4440,  -3.01662707,           6.
   4441,  -3.01801276,          6.5
   4442,  -3.01939821,           7.
   4443,   -3.0207839,          7.5
   4444,  -3.02216959,           8.
   4445,  -3.02355504,          8.5
   4446,  -3.02494073,           9.
   4447,  -3.02632642,          9.5
   4448,  -3.02771187,          10.
   4449,  -3.02909756,         10.5
   4450,  -3.03048301,          11.
   4451,   -3.0318687,         11.5
   4452,  -3.03325438,          12.
   4453,  -3.03463984,         12.5
   4454,  -3.03602552,          13.
   4455,  -3.03741097,         13.5
   4456,  -3.03879666,          14.
   4457,  -3.04018235,         14.5
   4458,   -3.0415678,          15.
   4459,  -3.04295349,         15.5
   4460,  -3.04433894,          16.
   4461,  -3.04572463,         16.5
   4462,  -3.04711032,          17.
   4463,  -3.04849577,         17.5
   4464,  -3.04988146,          18.
   4465,  -3.05126691,         18.5
   4466,   -3.0526526,          19.
   4467,  -3.05403829,         19.5
   4468,  -3.05542374,          20.
   4469,  -3.05680943,         20.5
   4470,  -3.05819488,          21.
   4471,  -3.05958056,         21.5
   4472,  -3.06096625,          22.
   4473,   -3.0623517,         22.5
   4474,  -3.06373739,          23.
   4475,  -3.06512284,         23.5
   4476,  -3.06650853,          24.
   4477,  -3.06789422,         24.5
   4478,  -3.06927967,          25.
   4479,  -3.07066536,         25.5
   4480,  -3.07205081,          26.
   4481,   -3.0734365,         26.5
   4482,  -3.07482219,          27.
   4483,  -3.07620764,         27.5
   4484,  -3.07759333,          28.
   4485,  -3.07897902,         28.5
   4486,  -3.08036447,          29.
   4487,  -3.08175015,         29.5
   4488,   -3.0831356,          30.
   4489,  -3.08452129,         30.5
   4490,  -3.08590698,          31.
   4491,  -3.08729243,         31.5
   4492,  -3.08867812,          32.
   4493,  -3.09006357,         32.5
   4494,  -3.09144926,          33.
   4495,  -3.09283495,         33.5
   4496,   -3.0942204,          34.
   4497,  -3.09560609,         34.5
   4498,  -3.09699154,          35.
   4499,  -3.09837723,         35.5
   4500,  -3.09976292,          36.
   4501,  -3.10114837,         36.5
   4502,  -3.10253406,          37.
   4503,  -3.10391951,         37.5
   4504,  -3.10530519,          38.
   4505,  -3.10669088,         38.5
   4506,  -3.10807633,          39.
   4507,  -3.10946202,         39.5
   4508,  -3.11084747,          40.
   4509,  -3.11223316,         40.5
   4510,  -3.11361885,          41.
   4511,   -3.1150043,         41.5
   4512,  -3.11638999,          42.
   4513,  -3.11777544,         42.5
   4514,  -3.11916113,          43.
   4515,  -3.12054682,         43.5
   4516,  -3.12193227,          44.
   4517,  -3.12331796,         44.5
   4518,  -3.12470341,          45.
   4519,   -3.1260891,         45.5
   4520,  -3.12747478,          46.
   4521,  -3.12886024,         46.5
   4522,  -3.13024592,          47.
   4523,  -3.13163161,         47.5
   4524,  -3.13301706,          48.
   4525,  -3.13440275,         48.5
   4526,   -3.1357882,          49.
   4527,  -3.13717389,         49.5
   4528,  -3.50148249,          0.5
   4529,  -3.50296474,           1.
   4530,  -3.50444722,          1.5
   4531,  -3.50592971,           2.
   4532,  -3.50741196,          2.5
   4533,  -3.50889444,           3.
   4534,  -3.51037669,          3.5
   4535,  -3.51185918,           4.
   4536,  -3.51334167,          4.5
   4537,  -3.51482391,           5.
   4538,   -3.5163064,          5.5
   4539,  -3.51778889,           6.
   4540,  -3.51927114,          6.5
   4541,  -3.52075362,           7.
   4542,  -3.52223611,          7.5
   4543,  -3.52371836,           8.
   4544,  -3.52520084,          8.5
   4545,  -3.52668333,           9.
   4546,  -3.52816558,          9.5
   4547,  -3.52964807,          10.
   4548,  -3.53113031,         10.5
   4549,   -3.5326128,          11.
   4550,  -3.53409529,         11.5
   4551,  -3.53557754,          12.
   4552,  -3.53706002,         12.5
   4553,  -3.53854251,          13.
   4554,  -3.54002476,         13.5
   4555,  -3.54150724,          14.
   4556,  -3.54298973,         14.5
   4557,  -3.54447198,          15.
   4558,  -3.54595447,         15.5
   4559,  -3.54743695,          16.
   4560,   -3.5489192,         16.5
   4561,  -3.55040169,          17.
   4562,  -3.55188394,         17.5
   4563,  -3.55336642,          18.
   4564,  -3.55484891,         18.5
   4565,  -3.55633116,          19.
   4566,  -3.55781364,         19.5
   4567,  -3.55929613,          20.
   4568,  -3.56077838,         20.5
   4569,  -3.56226087,          21.
   4570,  -3.56374335,         21.5
   4571,   -3.5652256,          22.
   4572,  -3.56670809,         22.5
   4573,  -3.56819057,          23.
   4574,  -3.56967282,         23.5
   4575,  -3.57115531,          24.
   4576,  -3.57263756,         24.5
   4577,  -3.57412004,          25.
   4578,  -3.57560253,         25.5
   4579,  -3.57708478,          26.
   4580,  -3.57856727,         26.5
   4581,  -3.58004975,          27.
   4582,    -3.581532,         27.5
   4583,  -3.58301449,          28.
   4584,  -3.58449697,         28.5
   4585,  -3.58597922,          29.
   4586,  -3.58746171,         29.5
   4587,   -3.5889442,          30.
   4588,  -3.59042645,         30.5
   4589,  -3.59190893,          31.
   4590,  -3.59339118,         31.5
   4591,  -3.59487367,          32.
   4592,  -3.59635615,         32.5
   4593,   -3.5978384,          33.
   4594,  -3.59932089,         33.5
   4595,  -3.60080338,          34.
   4596,  -3.60228562,         34.5
   4597,  -3.60376811,          35.
   4598,   -3.6052506,         35.5
   4599,  -3.60673285,          36.
   4600,  -3.60821533,         36.5
   4601,  -3.60969782,          37.
   4602,  -3.61118007,         37.5
   4603,  -3.61266255,          38.
   4604,   -3.6141448,         38.5
   4605,  -3.61562729,          39.
   4606,  -3.61710978,         39.5
   4607,  -3.61859202,          40.
   4608,  -3.62007451,         40.5
   4609,    -3.621557,          41.
   4610,  -3.62303925,         41.5
   4611,  -3.62452173,          42.
   4612,  -3.62600422,         42.5
   4613,  -3.62748647,          43.
   4614,  -3.62896895,         43.5
   4615,  -3.63045144,          44.
   4616,  -3.63193369,         44.5
   4617,  -3.63341618,          45.
   4618,  -3.63489842,         45.5
   4619,  -3.63638091,          46.
   4620,   -3.6378634,         46.5
   4621,  -3.63934565,          47.
   4622,  -3.64082813,         47.5
   4623,  -3.64231062,          48.
   4624,  -3.64379287,         48.5
   4625,  -3.64527535,          49.
   4626,  -3.64675784,         49.5
   4627,  -4.00157928,          0.5
   4628,  -4.00315857,           1.
   4629,  -4.00473785,          1.5
   4630,  -4.00631666,           2.
   4631,  -4.00789595,          2.5
   4632,  -4.00947523,           3.
   4633,  -4.01105452,          3.5
   4634,   -4.0126338,           4.
   4635,  -4.01421309,          4.5
   4636,  -4.01579189,           5.
   4637,  -4.01737118,          5.5
   4638,  -4.01895046,           6.
   4639,  -4.02052975,          6.5
   4640,  -4.02210903,           7.
   4641,  -4.02368832,          7.5
   4642,  -4.02526712,           8.
   4643,  -4.02684641,          8.5
   4644,  -4.02842569,           9.
   4645,  -4.03000498,          9.5
   4646,  -4.03158426,          10.
   4647,  -4.03316355,         10.5
   4648,  -4.03474236,          11.
   4649,  -4.03632164,         11.5
   4650,  -4.03790092,          12.
   4651,  -4.03948021,         12.5
   4652,  -4.04105949,          13.
   4653,  -4.04263878,         13.5
   4654,  -4.04421806,          14.
   4655,  -4.04579687,         14.5
   4656,  -4.04737616,          15.
   4657,  -4.04895544,         15.5
   4658,  -4.05053473,          16.
   4659,  -4.05211401,         16.5
   4660,  -4.05369329,          17.
   4661,   -4.0552721,         17.5
   4662,  -4.05685139,          18.
   4663,  -4.05843067,         18.5
   4664,  -4.06000996,          19.
   4665,  -4.06158924,         19.5
   4666,  -4.06316853,          20.
   4667,  -4.06474733,         20.5
   4668,  -4.06632662,          21.
   4669,   -4.0679059,         21.5
   4670,  -4.06948519,          22.
   4671,  -4.07106447,         22.5
   4672,  -4.07264376,          23.
   4673,  -4.07422256,         23.5
   4674,  -4.07580185,          24.
   4675,  -4.07738113,         24.5
   4676,  -4.07896042,          25.
   4677,   -4.0805397,         25.5
   4678,  -4.08211899,          26.
   4679,  -4.08369827,         26.5
   4680,  -4.08527708,          27.
   4681,  -4.08685637,         27.5
   4682,  -4.08843565,          28.
   4683,  -4.09001493,         28.5
   4684,  -4.09159422,          29.
   4685,   -4.0931735,         29.5
   4686,  -4.09475231,          30.
   4687,   -4.0963316,         30.5
   4688,  -4.09791088,          31.
   4689,  -4.09949017,         31.5
   4690,  -4.10106945,          32.
   4691,  -4.10264874,         32.5
   4692,  -4.10422754,          33.
   4693,  -4.10580683,         33.5
   4694,  -4.10738611,          34.
   4695,   -4.1089654,         34.5
   4696,  -4.11054468,          35.
   4697,  -4.11212397,         35.5
   4698,  -4.11370277,          36.
   4699,  -4.11528206,         36.5
   4700,  -4.11686134,          37.
   4701,  -4.11844063,         37.5
   4702,  -4.12001991,          38.
   4703,   -4.1215992,         38.5
   4704,  -4.12317848,          39.
   4705,  -4.12475729,         39.5
   4706,  -4.12633657,          40.
   4707,  -4.12791586,         40.5
   4708,  -4.12949514,          41.
   4709,  -4.13107443,         41.5
   4710,  -4.13265371,          42.
   4711,  -4.13423252,         42.5
   4712,  -4.13581181,          43.
   4713,  -4.13739109,         43.5
   4714,  -4.13897038,          44.
   4715,  -4.14054966,         44.5
   4716,  -4.14212894,          45.
   4717,  -4.14370775,         45.5
   4718,  -4.14528704,          46.
   4719,  -4.14686632,         46.5
   4720,  -4.14844561,          47.
   4721,  -4.15002489,         47.5
   4722,  -4.15160418,          48.
   4723,  -4.15318298,         48.5
   4724,  -4.15476227,          49.
   4725,  -4.15634155,         49.5
   4726,  -4.50135374,          0.5
   4727,    -4.502707,           1.
   4728,  -4.50406075,          1.5
   4729,  -4.50541449,           2.
   4730,  -4.50676823,          2.5
   4731,  -4.50812149,           3.
   4732,  -4.50947523,          3.5
   4733,  -4.51082897,           4.
   4734,  -4.51218224,          4.5
   4735,  -4.51353598,           5.
   4736,  -4.51488972,          5.5
   4737,  -4.51624346,           6.
   4738,  -4.51759672,          6.5
   4739,  -4.51895046,           7.
   4740,   -4.5203042,          7.5
   4741,  -4.52165794,           8.
   4742,  -4.52301121,          8.5
   4743,  -4.52436495,           9.
   4744,  -4.52571869,          9.5
   4745,  -4.52707195,          10.
   4746,  -4.52842569,         10.5
   4747,  -4.52977943,          11.
   4748,  -4.53113317,         11.5
   4749,  -4.53248644,          12.
   4750,  -4.53384018,         12.5
   4751,  -4.53519392,          13.
   4752,  -4.53654718,         13.5
   4753,  -4.53790092,          14.
   4754,  -4.53925467,         14.5
   4755,  -4.54060841,          15.
   4756,  -4.54196167,         15.5
   4757,  -4.54331541,          16.
   4758,  -4.54466915,         16.5
   4759,  -4.54602242,          17.
   4760,  -4.54737616,         17.5
   4761,   -4.5487299,          18.
   4762,  -4.55008364,         18.5
   4763,   -4.5514369,          19.
   4764,  -4.55279064,         19.5
   4765,  -4.55414438,          20.
   4766,  -4.55549812,         20.5
   4767,  -4.55685139,          21.
   4768,  -4.55820513,         21.5
   4769,  -4.55955887,          22.
   4770,  -4.56091213,         22.5
   4771,  -4.56226587,          23.
   4772,  -4.56361961,         23.5
   4773,  -4.56497335,          24.
   4774,  -4.56632662,         24.5
   4775,  -4.56768036,          25.
   4776,   -4.5690341,         25.5
   4777,  -4.57038736,          26.
   4778,   -4.5717411,         26.5
   4779,  -4.57309484,          27.
   4780,  -4.57444859,         27.5
   4781,  -4.57580185,          28.
   4782,  -4.57715559,         28.5
   4783,  -4.57850933,          29.
   4784,  -4.57986259,         29.5
   4785,  -4.58121634,          30.
   4786,  -4.58257008,         30.5
   4787,  -4.58392382,          31.
   4788,  -4.58527708,         31.5
   4789,  -4.58663082,          32.
   4790,  -4.58798456,         32.5
   4791,   -4.5893383,          33.
   4792,  -4.59069157,         33.5
   4793,  -4.59204531,          34.
   4794,  -4.59339905,         34.5
   4795,  -4.59475231,          35.
   4796,  -4.59610605,         35.5
   4797,  -4.59745979,          36.
   4798,  -4.59881353,         36.5
   4799,   -4.6001668,          37.
   4800,  -4.60152054,         37.5
   4801,  -4.60287428,          38.
   4802,  -4.60422754,         38.5
   4803,  -4.60558128,          39.
   4804,  -4.60693502,         39.5
   4805,  -4.60828876,          40.
   4806,  -4.60964203,         40.5
   4807,  -4.61099577,          41.
   4808,  -4.61234951,         41.5
   4809,  -4.61370277,          42.
   4810,  -4.61505651,         42.5
   4811,  -4.61641026,          43.
   4812,    -4.617764,         43.5
   4813,  -4.61911726,          44.
   4814,    -4.620471,         44.5
   4815,  -4.62182474,          45.
   4816,  -4.62317848,         45.5
   4817,  -4.62453175,          46.
   4818,  -4.62588549,         46.5
   4819,  -4.62723923,          47.
   4820,  -4.62859249,         47.5
   4821,  -4.62994623,          48.
   4822,  -4.63129997,         48.5
   4823,  -4.63265371,          49.
   4824,  -4.63400698,         49.5
   4825,   -5.0011282,          0.5
   4826,  -5.00225592,           1.
   4827,  -5.00338411,          1.5
   4828,  -5.00451183,           2.
   4829,  -5.00564003,          2.5
   4830,  -5.00676823,           3.
   4831,  -5.00789595,          3.5
   4832,  -5.00902414,           4.
   4833,  -5.01015186,          4.5
   4834,  -5.01128006,           5.
   4835,  -5.01240826,          5.5
   4836,  -5.01353598,           6.
   4837,  -5.01466417,          6.5
   4838,  -5.01579189,           7.
   4839,  -5.01692009,          7.5
   4840,  -5.01804829,           8.
   4841,  -5.01917601,          8.5
   4842,   -5.0203042,           9.
   4843,  -5.02143192,          9.5
   4844,  -5.02256012,          10.
   4845,  -5.02368832,         10.5
   4846,  -5.02481604,          11.
   4847,  -5.02594423,         11.5
   4848,  -5.02707195,          12.
   4849,  -5.02820015,         12.5
   4850,  -5.02932835,          13.
   4851,  -5.03045607,         13.5
   4852,  -5.03158426,          14.
   4853,  -5.03271198,         14.5
   4854,  -5.03384018,          15.
   4855,  -5.03496838,         15.5
   4856,   -5.0360961,          16.
   4857,  -5.03722429,         16.5
   4858,  -5.03835201,          17.
   4859,  -5.03948021,         17.5
   4860,  -5.04060841,          18.
   4861,  -5.04173613,         18.5
   4862,  -5.04286432,          19.
   4863,  -5.04399204,         19.5
   4864,  -5.04512024,          20.
   4865,  -5.04624844,         20.5
   4866,  -5.04737616,          21.
   4867,  -5.04850435,         21.5
   4868,  -5.04963207,          22.
   4869,  -5.05076027,         22.5
   4870,  -5.05188847,          23.
   4871,  -5.05301619,         23.5
   4872,  -5.05414438,          24.
   4873,   -5.0552721,         24.5
   4874,   -5.0564003,          25.
   4875,   -5.0575285,         25.5
   4876,  -5.05865622,          26.
   4877,  -5.05978441,         26.5
   4878,  -5.06091213,          27.
   4879,  -5.06204033,         27.5
   4880,  -5.06316853,          28.
   4881,  -5.06429625,         28.5
   4882,  -5.06542444,          29.
   4883,  -5.06655216,         29.5
   4884,  -5.06768036,          30.
   4885,  -5.06880856,         30.5
   4886,  -5.06993628,          31.
   4887,  -5.07106447,         31.5
   4888,  -5.07219219,          32.
   4889,  -5.07332039,         32.5
   4890,  -5.07444859,          33.
   4891,  -5.07557631,         33.5
   4892,   -5.0767045,          34.
   4893,  -5.07783222,         34.5
   4894,  -5.07896042,          35.
   4895,  -5.08008862,         35.5
   4896,  -5.08121634,          36.
   4897,  -5.08234453,         36.5
   4898,  -5.08347225,          37.
   4899,  -5.08460045,         37.5
   4900,  -5.08572865,          38.
   4901,  -5.08685637,         38.5
   4902,  -5.08798456,          39.
   4903,  -5.08911228,         39.5
   4904,  -5.09024048,          40.
   4905,  -5.09136868,         40.5
   4906,   -5.0924964,          41.
   4907,  -5.09362459,         41.5
   4908,  -5.09475231,          42.
   4909,  -5.09588051,         42.5
   4910,  -5.09700871,          43.
   4911,  -5.09813643,         43.5
   4912,  -5.09926462,          44.
   4913,  -5.10039234,         44.5
   4914,  -5.10152054,          45.
   4915,  -5.10264874,         45.5
   4916,  -5.10377645,          46.
   4917,  -5.10490465,         46.5
   4918,  -5.10603237,          47.
   4919,  -5.10716057,         47.5
   4920,  -5.10828876,          48.
   4921,  -5.10941648,         48.5
   4922,  -5.11054468,          49.
   4923,   -5.1116724,         49.5
   4924,  -5.50090218,          0.5
   4925,  -5.50180483,           1.
   4926,    -5.502707,          1.5
   4927,  -5.50360966,           2.
   4928,  -5.50451183,          2.5
   4929,  -5.50541449,           3.
   4930,  -5.50631666,          3.5
   4931,  -5.50721931,           4.
   4932,  -5.50812149,          4.5
   4933,  -5.50902414,           5.
   4934,  -5.50992632,          5.5
   4935,  -5.51082897,           6.
   4936,  -5.51173115,          6.5
   4937,   -5.5126338,           7.
   4938,  -5.51353598,          7.5
   4939,  -5.51443863,           8.
   4940,  -5.51534081,          8.5
   4941,  -5.51624346,           9.
   4942,  -5.51714563,          9.5
   4943,  -5.51804829,          10.
   4944,  -5.51895046,         10.5
   4945,  -5.51985312,          11.
   4946,  -5.52075529,         11.5
   4947,  -5.52165794,          12.
   4948,  -5.52256012,         12.5
   4949,   -5.5234623,          13.
   4950,  -5.52436495,         13.5
   4951,  -5.52526712,          14.
   4952,  -5.52616978,         14.5
   4953,  -5.52707195,          15.
   4954,  -5.52797461,         15.5
   4955,  -5.52887678,          16.
   4956,  -5.52977943,         16.5
   4957,  -5.53068161,          17.
   4958,  -5.53158426,         17.5
   4959,  -5.53248644,          18.
   4960,  -5.53338909,         18.5
   4961,  -5.53429127,          19.
   4962,  -5.53519392,         19.5
   4963,   -5.5360961,          20.
   4964,  -5.53699875,         20.5
   4965,  -5.53790092,          21.
   4966,  -5.53880358,         21.5
   4967,  -5.53970575,          22.
   4968,  -5.54060841,         22.5
   4969,  -5.54151058,          23.
   4970,  -5.54241323,         23.5
   4971,  -5.54331541,          24.
   4972,  -5.54421806,         24.5
   4973,  -5.54512024,          25.
   4974,  -5.54602242,         25.5
   4975,  -5.54692507,          26.
   4976,  -5.54782724,         26.5
   4977,   -5.5487299,          27.
   4978,  -5.54963207,         27.5
   4979,  -5.55053473,          28.
   4980,   -5.5514369,         28.5
   4981,  -5.55233955,          29.
   4982,  -5.55324173,         29.5
   4983,  -5.55414438,          30.
   4984,  -5.55504656,         30.5
   4985,  -5.55594921,          31.
   4986,  -5.55685139,         31.5
   4987,  -5.55775404,          32.
   4988,  -5.55865622,         32.5
   4989,  -5.55955887,          33.
   4990,  -5.56046104,         33.5
   4991,   -5.5613637,          34.
   4992,  -5.56226587,         34.5
   4993,  -5.56316853,          35.
   4994,   -5.5640707,         35.5
   4995,  -5.56497335,          36.
   4996,  -5.56587553,         36.5
   4997,  -5.56677818,          37.
   4998,  -5.56768036,         37.5
   4999,  -5.56858253,          38.
   5000,  -5.56948519,         38.5
   5001,  -5.57038736,          39.
   5002,  -5.57129002,         39.5
   5003,  -5.57219219,          40.
   5004,  -5.57309484,         40.5
   5005,  -5.57399702,          41.
   5006,  -5.57489967,         41.5
   5007,  -5.57580185,          42.
   5008,   -5.5767045,         42.5
   5009,  -5.57760668,          43.
   5010,  -5.57850933,         43.5
   5011,  -5.57941151,          44.
   5012,  -5.58031416,         44.5
   5013,  -5.58121634,          45.
   5014,  -5.58211899,         45.5
   5015,  -5.58302116,          46.
   5016,  -5.58392382,         46.5
   5017,  -5.58482599,          47.
   5018,  -5.58572865,         47.5
   5019,  -5.58663082,          48.
   5020,  -5.58753347,         48.5
   5021,  -5.58843565,          49.
   5022,   -5.5893383,         49.5
   5023,  -6.00067663,          0.5
   5024,  -6.00135374,           1.
   5025,  -6.00203037,          1.5
   5026,    -6.002707,           2.
   5027,  -6.00338411,          2.5
   5028,  -6.00406075,           3.
   5029,  -6.00473785,          3.5
   5030,  -6.00541449,           4.
   5031,  -6.00609112,          4.5
   5032,  -6.00676823,           5.
   5033,  -6.00744486,          5.5
   5034,  -6.00812149,           6.
   5035,   -6.0087986,          6.5
   5036,  -6.00947523,           7.
   5037,  -6.01015186,          7.5
   5038,  -6.01082897,           8.
   5039,   -6.0115056,          8.5
   5040,  -6.01218224,           9.
   5041,  -6.01285934,          9.5
   5042,  -6.01353598,          10.
   5043,  -6.01421309,         10.5
   5044,  -6.01488972,          11.
   5045,  -6.01556635,         11.5
   5046,  -6.01624346,          12.
   5047,  -6.01692009,         12.5
   5048,  -6.01759672,          13.
   5049,  -6.01827383,         13.5
   5050,  -6.01895046,          14.
   5051,  -6.01962709,         14.5
   5052,   -6.0203042,          15.
   5053,  -6.02098083,         15.5
   5054,  -6.02165794,          16.
   5055,  -6.02233458,         16.5
   5056,  -6.02301121,          17.
   5057,  -6.02368832,         17.5
   5058,  -6.02436495,          18.
   5059,  -6.02504158,         18.5
   5060,  -6.02571869,          19.
   5061,  -6.02639532,         19.5
   5062,  -6.02707195,          20.
   5063,  -6.02774906,         20.5
   5064,  -6.02842569,          21.
   5065,  -6.02910233,         21.5
   5066,  -6.02977943,          22.
   5067,  -6.03045607,         22.5
   5068,  -6.03113317,          23.
   5069,  -6.03180981,         23.5
   5070,  -6.03248644,          24.
   5071,  -6.03316355,         24.5
   5072,  -6.03384018,          25.
   5073,  -6.03451681,         25.5
   5074,  -6.03519392,          26.
   5075,  -6.03587055,         26.5
   5076,  -6.03654718,          27.
   5077,  -6.03722429,         27.5
   5078,  -6.03790092,          28.
   5079,  -6.03857803,         28.5
   5080,  -6.03925467,          29.
   5081,   -6.0399313,         29.5
   5082,  -6.04060841,          30.
   5083,  -6.04128504,         30.5
   5084,  -6.04196167,          31.
   5085,  -6.04263878,         31.5
   5086,  -6.04331541,          32.
   5087,  -6.04399204,         32.5
   5088,  -6.04466915,          33.
   5089,  -6.04534578,         33.5
   5090,  -6.04602242,          34.
   5091,  -6.04669952,         34.5
   5092,  -6.04737616,          35.
   5093,  -6.04805326,         35.5
   5094,   -6.0487299,          36.
   5095,  -6.04940653,         36.5
   5096,  -6.05008364,          37.
   5097,  -6.05076027,         37.5
   5098,   -6.0514369,          38.
   5099,  -6.05211401,         38.5
   5100,  -6.05279064,          39.
   5101,  -6.05346727,         39.5
   5102,  -6.05414438,          40.
   5103,  -6.05482101,         40.5
   5104,  -6.05549812,          41.
   5105,  -6.05617476,         41.5
   5106,  -6.05685139,          42.
   5107,   -6.0575285,         42.5
   5108,  -6.05820513,          43.
   5109,  -6.05888176,         43.5
   5110,  -6.05955887,          44.
   5111,   -6.0602355,         44.5
   5112,  -6.06091213,          45.
   5113,  -6.06158924,         45.5
   5114,  -6.06226587,          46.
   5115,   -6.0629425,         46.5
   5116,  -6.06361961,          47.
   5117,  -6.06429625,         47.5
   5118,  -6.06497335,          48.
   5119,  -6.06564999,         48.5
   5120,  -6.06632662,          49.
   5121,  -6.06700373,         49.5
   5122,  -6.50045109,          0.5
   5123,  -6.50090218,           1.
   5124,  -6.50135374,          1.5
   5125,  -6.50180483,           2.
   5126,  -6.50225592,          2.5
   5127,    -6.502707,           3.
   5128,  -6.50315857,          3.5
   5129,  -6.50360966,           4.
   5130,  -6.50406075,          4.5
   5131,  -6.50451183,           5.
   5132,   -6.5049634,          5.5
   5133,  -6.50541449,           6.
   5134,  -6.50586557,          6.5
   5135,  -6.50631666,           7.
   5136,  -6.50676823,          7.5
   5137,  -6.50721931,           8.
   5138,   -6.5076704,          8.5
   5139,  -6.50812149,           9.
   5140,  -6.50857306,          9.5
   5141,  -6.50902414,          10.
   5142,  -6.50947523,         10.5
   5143,  -6.50992632,          11.
   5144,  -6.51037788,         11.5
   5145,  -6.51082897,          12.
   5146,  -6.51128006,         12.5
   5147,  -6.51173115,          13.
   5148,  -6.51218224,         13.5
   5149,   -6.5126338,          14.
   5150,  -6.51308489,         14.5
   5151,  -6.51353598,          15.
   5152,  -6.51398706,         15.5
   5153,  -6.51443863,          16.
   5154,  -6.51488972,         16.5
   5155,  -6.51534081,          17.
   5156,  -6.51579189,         17.5
   5157,  -6.51624346,          18.
   5158,  -6.51669455,         18.5
   5159,  -6.51714563,          19.
   5160,  -6.51759672,         19.5
   5161,  -6.51804829,          20.
   5162,  -6.51849937,         20.5
   5163,  -6.51895046,          21.
   5164,  -6.51940155,         21.5
   5165,  -6.51985312,          22.
   5166,   -6.5203042,         22.5
   5167,  -6.52075529,          23.
   5168,  -6.52120638,         23.5
   5169,  -6.52165794,          24.
   5170,  -6.52210903,         24.5
   5171,  -6.52256012,          25.
   5172,  -6.52301121,         25.5
   5173,   -6.5234623,          26.
   5174,  -6.52391386,         26.5
   5175,  -6.52436495,          27.
   5176,  -6.52481604,         27.5
   5177,  -6.52526712,          28.
   5178,  -6.52571869,         28.5
   5179,  -6.52616978,          29.
   5180,  -6.52662086,         29.5
   5181,  -6.52707195,          30.
   5182,  -6.52752352,         30.5
   5183,  -6.52797461,          31.
   5184,  -6.52842569,         31.5
   5185,  -6.52887678,          32.
   5186,  -6.52932835,         32.5
   5187,  -6.52977943,          33.
   5188,  -6.53023052,         33.5
   5189,  -6.53068161,          34.
   5190,  -6.53113317,         34.5
   5191,  -6.53158426,          35.
   5192,  -6.53203535,         35.5
   5193,  -6.53248644,          36.
   5194,    -6.532938,         36.5
   5195,  -6.53338909,          37.
   5196,  -6.53384018,         37.5
   5197,  -6.53429127,          38.
   5198,  -6.53474236,         38.5
   5199,  -6.53519392,          39.
   5200,  -6.53564501,         39.5
   5201,   -6.5360961,          40.
   5202,  -6.53654718,         40.5
   5203,  -6.53699875,          41.
   5204,  -6.53744984,         41.5
   5205,  -6.53790092,          42.
   5206,  -6.53835201,         42.5
   5207,  -6.53880358,          43.
   5208,  -6.53925467,         43.5
   5209,  -6.53970575,          44.
   5210,  -6.54015684,         44.5
   5211,  -6.54060841,          45.
   5212,  -6.54105949,         45.5
   5213,  -6.54151058,          46.
   5214,  -6.54196167,         46.5
   5215,  -6.54241323,          47.
   5216,  -6.54286432,         47.5
   5217,  -6.54331541,          48.
   5218,   -6.5437665,         48.5
   5219,  -6.54421806,          49.
   5220,  -6.54466915,         49.5
   5221,  -7.00022554,          0.5
   5222,  -7.00045109,           1.
   5223,  -7.00067663,          1.5
   5224,  -7.00090218,           2.
   5225,   -7.0011282,          2.5
   5226,  -7.00135374,           3.
   5227,  -7.00157928,          3.5
   5228,  -7.00180483,           4.
   5229,  -7.00203037,          4.5
   5230,  -7.00225592,           5.
   5231,  -7.00248146,          5.5
   5232,    -7.002707,           6.
   5233,  -7.00293303,          6.5
   5234,  -7.00315857,           7.
   5235,  -7.00338411,          7.5
   5236,  -7.00360966,           8.
   5237,   -7.0038352,          8.5
   5238,  -7.00406075,           9.
   5239,  -7.00428629,          9.5
   5240,  -7.00451183,          10.
   5241,  -7.00473785,         10.5
   5242,   -7.0049634,          11.
   5243,  -7.00518894,         11.5
   5244,  -7.00541449,          12.
   5245,  -7.00564003,         12.5
   5246,  -7.00586557,          13.
   5247,  -7.00609112,         13.5
   5248,  -7.00631666,          14.
   5249,  -7.00654221,         14.5
   5250,  -7.00676823,          15.
   5251,  -7.00699377,         15.5
   5252,  -7.00721931,          16.
   5253,  -7.00744486,         16.5
   5254,   -7.0076704,          17.
   5255,  -7.00789595,         17.5
   5256,  -7.00812149,          18.
   5257,  -7.00834703,         18.5
   5258,  -7.00857306,          19.
   5259,   -7.0087986,         19.5
   5260,  -7.00902414,          20.
   5261,  -7.00924969,         20.5
   5262,  -7.00947523,          21.
   5263,  -7.00970078,         21.5
   5264,  -7.00992632,          22.
   5265,  -7.01015186,         22.5
   5266,  -7.01037788,          23.
   5267,  -7.01060343,         23.5
   5268,  -7.01082897,          24.
   5269,  -7.01105452,         24.5
   5270,  -7.01128006,          25.
   5271,   -7.0115056,         25.5
   5272,  -7.01173115,          26.
   5273,  -7.01195669,         26.5
   5274,  -7.01218224,          27.
   5275,  -7.01240826,         27.5
   5276,   -7.0126338,          28.
   5277,  -7.01285934,         28.5
   5278,  -7.01308489,          29.
   5279,  -7.01331043,         29.5
   5280,  -7.01353598,          30.
   5281,  -7.01376152,         30.5
   5282,  -7.01398706,          31.
   5283,  -7.01421309,         31.5
   5284,  -7.01443863,          32.
   5285,  -7.01466417,         32.5
   5286,  -7.01488972,          33.
   5287,  -7.01511526,         33.5
   5288,  -7.01534081,          34.
   5289,  -7.01556635,         34.5
   5290,  -7.01579189,          35.
   5291,  -7.01601791,         35.5
   5292,  -7.01624346,          36.
   5293,    -7.016469,         36.5
   5294,  -7.01669455,          37.
   5295,  -7.01692009,         37.5
   5296,  -7.01714563,          38.
   5297,  -7.01737118,         38.5
   5298,  -7.01759672,          39.
   5299,  -7.01782227,         39.5
   5300,  -7.01804829,          40.
   5301,  -7.01827383,         40.5
   5302,  -7.01849937,          41.
   5303,  -7.01872492,         41.5
   5304,  -7.01895046,          42.
   5305,  -7.01917601,         42.5
   5306,  -7.01940155,          43.
   5307,  -7.01962709,         43.5
   5308,  -7.01985312,          44.
   5309,  -7.02007866,         44.5
   5310,   -7.0203042,          45.
   5311,  -7.02052975,         45.5
   5312,  -7.02075529,          46.
   5313,  -7.02098083,         46.5
   5314,  -7.02120638,          47.
   5315,  -7.02143192,         47.5
   5316,  -7.02165794,          48.
   5317,  -7.02188349,         48.5
   5318,  -7.02210903,          49.
   5319,  -7.02233458,         49.5
   5320,   7.05358362,  -39.5078468
   5321,   5.82280684,  -20.7138767
   5322,   5.83390856,  -15.9611731
   5323,   5.89480305,  -25.1973019
   5324,   6.22994232,  -29.8655758
   5325,   6.58487129,  -34.5964012
   5326,   7.64688253,  -44.6320686
   5327,   18.4902496,  -26.3931904
   5328,   18.8441448,  -31.2354622
   5329,   19.1205597,   -35.887104
   5330,   19.1283245,   -40.494751
   5331,   18.3421631,  -45.0084915
   5332,   18.0643997,  -16.1022167
   5333,    18.091547,  -21.3328056
   5334,   13.2368574,   -10.931982
   5335,   8.89742565,  -11.0377092
   5336,   5.57331562,  -11.1440172
   5337,   9.22769451,  -20.7243137
   5338,   10.1324358,  -28.8479481
   5339,   10.6343813,  -33.4878235
   5340,   9.42125893,  -15.9820843
   5341,   9.35522175,  -24.4631977
   5342,   15.1203508,  -36.7275772
   5343,   13.0467548,   -22.053709
   5344,   14.1537256,  -27.4515896
   5345,   14.6819563,  -32.2439499
   5346,    13.465517,  -16.1590786
   5347,   15.9063549,  -40.2651215
   5348,   11.2874651,  -38.2906914
   5349,   13.0596428,  -43.7349892
   5350,   18.0101414,  -10.9797306
   5351,   8.13150215,   2.45921445
   5352,   8.24671841,   31.9536629
   5353,   8.57524776,    43.932373
   5354,   8.14782524,    45.510067
   5355,   8.30134678,    45.012764
   5356,   8.19584465,   42.3749352
   5357,   8.17048931,   40.9234962
   5358,   8.11412907,   40.4485817
   5359,    8.1551609,   39.9530602
   5360,   7.92824316,   38.9774361
   5361,   8.17524529,   38.0897369
   5362,   8.51186371,   37.0504265
   5363,   8.25797749,   35.9190788
   5364,   8.14936447,   34.9474182
   5365,   8.15142345,   33.9745178
   5366,   8.21072865,    32.978157
   5367,   8.10077858,    30.340538
   5368,   8.00582504,   29.9707661
   5369,    8.0715313,    29.588129
   5370,   8.14162636,   28.6072407
   5371,   8.27731895,   27.5831814
   5372,   8.20088291,   26.5398655
   5373,   8.35916996,   25.6011314
   5374,   8.43095398,   24.5542202
   5375,   8.37670803,   23.4446583
   5376,   8.29672432,   22.3808498
   5377,   8.10301876,   21.3958874
   5378,   8.08328629,   20.4395733
   5379,   8.17807293,   19.7013931
   5380,   8.28229904,   18.5621853
   5381,   8.32768059,   17.4957333
   5382,   8.30052471,   16.4284153
   5383,   8.18076611,   15.3972702
   5384,   8.00775528,   14.4571609
   5385,   8.20796585,    13.560421
   5386,   8.32754612,   12.5904684
   5387,   8.33326817,   11.5124016
   5388,   7.87837029,   9.90556526
   5389,    7.8355875,   9.57688427
   5390,    8.1072464,   9.34912014
   5391,   8.35847187,   8.10828495
   5392,   8.40621948,   6.99757099
   5393,   8.36133385,   5.91500092
   5394,   8.20628357,   4.91093254
   5395,   8.29455185,   3.41421604
   5396,   8.19355965,   2.92923164
   5397,   8.15983963,   1.56517005
   5398,   8.34091568,  0.573128581
   5399,   8.51320171,   49.1467934
   5400,   8.61260223, -0.0502629876
   5401,   10.5684204,    48.480442
   5402,   10.3239222,  -2.96288991
   5403,   8.59117126,   43.3940735
   5404,   8.71357536,   23.9666348
   5405,   8.82109642,   1.61314487
   5406,   8.01302814,   46.4267464
   5407,    8.2173748,   39.3679924
   5408,   8.67325687,   36.3873634
   5409,   8.22245789,   29.0917435
   5410,   8.53739452,   19.1398449
   5411,   8.55565548,   12.0744829
   5412,   8.63568783,   8.77241039
   5413,   8.28722858,   41.8947601
   5414,   8.24800968,   41.3886757
   5415,   8.06176281,    38.580925
   5416,   8.80959988,   38.2648239
   5417,   8.43889332,   35.3926201
   5418,   8.38992786,   34.4349174
   5419,   8.44693947,   33.4578514
   5420,   8.53806782,   32.4441223
   5421,   8.52781677,   31.4030914
   5422,   8.29420853,   30.8042068
   5423,   8.55224895,   28.2087803
   5424,   8.59966946,   27.0727654
   5425,   8.35787868,   26.1207676
   5426,   9.10404015,   25.1605797
   5427,    8.6849699,   22.8585796
   5428,   8.51216412,   21.7748318
   5429,   8.18212223,    20.935379
   5430,   8.62941837,   18.0446968
   5431,   8.64710045,   16.9364166
   5432,   8.55776501,   15.8463802
   5433,   8.34279442,   14.8509769
   5434,   8.12672138,   14.0531445
   5435,   9.04733181,   13.1672087
   5436,   8.74742317,   10.9324398
   5437,   8.33766842,   10.1404047
   5438,   8.73663139,   7.56921196
   5439,   8.74048042,   6.42209053
   5440,   8.62044811,   5.32204485
   5441,   8.32736397,   4.43638086
   5442,   8.30569172,   3.93223119
   5443,   8.20648766,   47.2907181
   5444,     8.887043,   48.3273315
   5445,   8.82080555,   45.7275467
   5446,   9.23237228,   44.6065636
   5447,   8.98971748,  0.873273492
   5448,   9.19450569,  -1.14389658
   5449,   8.79531574,   46.9471359
   5450,   8.56774902,   46.3770103
   5451,   8.84548664,   40.7554016
   5452,   9.37398338,   9.60790157
   5453,    8.7742281,   2.22318697
   5454,   9.55363941,   8.25346851
   5455,   9.03412056,   33.8966446
   5456,   9.36367702,   18.6758652
   5457,   8.91208935,   39.5174026
   5458,   9.15469646,    29.178648
   5459,   9.61481762,   23.3455601
   5460,   9.97543812,   10.3965464
   5461,   9.41906071,    27.768425
   5462,    9.1803627,   32.9281807
   5463,   9.44012356,    22.103014
   5464,   9.42913055,   16.2562714
   5465,   9.48591137,   11.6777601
   5466,   9.59310532,   37.4984512
   5467,   9.13338184,   35.7150116
   5468,   9.00604248,   34.8418922
   5469,   9.32121086,   31.8539543
   5470,   9.12177181,     30.91852
   5471,   9.39198303,    26.412878
   5472,   9.52993679,   24.4695415
   5473,   9.02972698,   20.9156132
   5474,   9.53332138,   20.3145981
   5475,    9.1925211,   19.7680283
   5476,   9.46781349,   17.4801044
   5477,   9.16318417,   15.1321325
   5478,   8.72454548,   14.2501316
   5479,    9.5158205,    13.874917
   5480,   9.00500965,   12.6283827
   5481,   9.66128635,   6.95450449
   5482,   9.55247211,   5.70181084
   5483,   9.34366417,   4.44244337
   5484,   9.27442455,   3.19897771
   5485,   9.23391628,    45.189682
   5486,   9.02939987,   41.1776161
   5487,   9.41110706,  0.448819011
   5488,   10.0277796,   44.0255585
   5489,    10.890605,    2.5397706
   5490,   9.81816673,   47.3942642
   5491,   9.41709518,   46.4176865
   5492,    10.575325,   41.8395805
   5493,   10.4276018,   22.5746498
   5494,   9.48687458,   14.4506006
   5495,   9.11029053,   39.0276375
   5496,   9.70943546,   33.4312363
   5497,    10.175271,   28.6320267
   5498,   10.2874174,   27.1657696
   5499,   10.2107878,   18.1203232
   5500,   10.2681007,   16.7723484
   5501,   11.0452271,   38.1165695
   5502,   10.0024853,   21.2504616
   5503,   10.1941738,     32.52248
   5504,   10.5793056,   11.2581558
   5505,    9.6186142,   35.1714973
   5506,   10.9818525,   31.2917976
   5507,   11.2000303,     25.02738
   5508,    10.213172,   25.9957867
   5509,   10.4746199,    24.008831
   5510,   10.4391193,   20.2849941
   5511,   11.4084835,    19.707756
   5512,   10.9031534,   18.8519192
   5513,   10.0696049,    15.431859
   5514,   10.1297169,   13.4260359
   5515,   9.91824532,   12.4648991
   5516,   10.4528637,    7.5981226
   5517,   11.3852415,   4.66863251
   5518,   10.5680981,   6.10326719
   5519,   10.3164854,   9.02103329
   5520,   9.82508373,   30.0532265
   5521,   9.74256706,   40.4773216
   5522,   12.7541218,   1.09676743
   5523,   12.0765905,   7.77547979
   5524,   11.4729023,   33.2825203
   5525,   10.7724972,   27.9406872
   5526,    10.454154,   14.5165215
   5527,   11.5549746,   23.2569237
   5528,   12.0309401,   18.1023483
   5529,   11.5138054,    26.438839
   5530,   11.7679424,   10.8659334
   5531,   12.8374357,   38.4481621
   5532,   12.0602264,   40.2589722
   5533,   12.2550688,   9.08947849
   5534,   11.3033819,   29.6329327
   5535,   14.8227873,  -1.93604994
   5536,    12.403738,   2.99322581
   5537,   13.1509457,   5.65494061
   5538,   10.6588383,   45.5038605
   5539,   13.4351406,   7.42164803
   5540,   13.6448212,   41.2505226
   5541,   12.7426672,   24.3466301
   5542,   11.1250753,   15.8709574
   5543,   11.4259653,   13.1290932
   5544,   11.4956779,   20.6319618
   5545,   12.3890533,   31.8786697
   5546,   10.3573885,   34.3113251
   5547,    12.754488,   19.2653294
   5548,   13.0895681,     36.47155
   5549,   14.3311663,   3.71736717
   5550,   14.7804651,   38.8999138
   5551,    13.427104,   8.60697842
   5552,   13.3285599,   10.6399918
   5553,   11.9109011,   28.0170345
   5554,   13.0496979,   44.5517082
   5555,   14.9084311,   6.16587687
   5556,   13.7308779,   32.7399673
   5557,    14.194869,   23.0026131
   5558,   12.1546211,   14.6938543
   5559,   12.3868103,   12.1030903
   5560,   14.6042471,   9.34379196
   5561,   13.8211899,   46.7088165
   5562,   15.2196751,   1.45804226
   5563,   15.0598717,   7.67490578
   5564,   13.8954124,   28.1016235
   5565,   17.0985126,   7.81635237
   5566,   13.2629995,   16.6373558
   5567,   14.7861462,   20.8609066
   5568,   12.7857914,   34.4161491
   5569,   13.2613316,   30.1464443
   5570,   15.3656559,   12.1530466
   5571,   15.6000862,   42.6531219
   5572,   16.5923958,   10.3318939
   5573,   14.4463148,    18.634737
   5574,   16.5935326,    24.663784
   5575,   15.3471584,   15.5116739
   5576,   14.6705675,   34.0186996
   5577,   17.0991001,   39.4390984
   5578,   15.1245556,   31.0340099
   5579,   17.4606457,   35.8828468
   5580,   16.4215527,   28.5107098
   5581,   13.9051657,   13.6080952
   5582,   17.1507072,   20.9058571
   5583,   18.2293568,   45.0719185
   5584,   17.4110336,   13.9993372
   5585,   16.6034813,   17.8721104
   5586,   19.9637623,   20.3588181
   5587,   19.2755241,     16.61133
   5588,   19.9352932,   24.8158588
   5589,   20.1359673,   35.2279434
   5590,   19.4619026,   30.1191025
   5591,   18.8549576,   3.29461527
   5592,   19.7980919,    39.926899
   5593,   19.2021313,   11.7064838
   5594,   18.6836281,  -1.72877896
   5595,   8.12788391,   49.5621109
   5596,   8.44621086,   47.7666016
   5597,   8.05453968,   46.8690948
   5598,   8.03403282,   45.9746628
   5599,   8.42194366,   44.4799194
   5600,   8.64616776,   42.7686157
   5601,   8.29992199,   37.5762939
   5602,   8.35959816,   25.0874462
   5603,   7.93129396,   20.0430813
   5604,   8.27368259,   13.0737324
   5605,    8.1276474,     2.025069
   5606,   8.18527508,   1.07630479
   5607,   19.7240772,    8.0490818
   5608,   12.1562347,  -1.12139988
   5609,   10.4683762,  -0.20459418
   5610,   16.3530712,   5.16265106
   5611,   10.9948788,   1.18060291
   5612,   9.17473984,   41.8855171
   5613,   10.0112019,   4.94597673
   5614,   8.57307911,   38.7988777
   5615,   9.01777554,   47.3414841
   5616,   11.2562199,   46.9178352
   5617,   8.50617027,   46.7218933
   5618,   8.49878311,   46.0399666
   5619,   9.56924534,   43.1211281
   5620,   8.63782597,   40.4172401
   5621,    8.9532423,   30.4178772
   5622,   8.53020954,   29.9275341
   5623,   8.90042114,   37.8048286
   5624,   9.93967915,   36.5933609
   5625,   9.63227272,   1.33995664
   5626,   8.69508076,   1.19188571
   5627,   8.77035809,    2.7662189
   5628,   9.02122784,   3.86547422
   5629,   9.17848969,   25.6384583
   5630,   9.06389046,   24.7495098
   5631,   8.64914894,   20.1980095
   5632,   9.97271061,   19.3770027
   5633,   8.89278603,   13.6914463
   5634,   16.7187195,   32.7022629
   5635,   11.9084492,   42.9782867
   5636,   15.0962791,   36.3015823
   5637,   13.7270689,   25.9305859
   5638,   9.97291565,   35.7507629
   5639,   9.47046757,   38.4127464
   5640,   9.42188835,   34.3370552
   5641,   9.68501568,   2.30217385
   5642,   11.1063747,   21.6432381
   5643,   12.4709377,   22.1573143
   5644,   11.1130905,   17.4112835
   5645,   11.1230116,   9.85246086
   5646,   11.0161772,   12.1779833
   5647,   11.7930298,   16.6095314
   5648,   11.1795187,   8.35307026
   5649,   11.5344105,    6.7845788
   5650,   9.83867073,   31.0411091
   5651,   10.8414268,    39.481308
   5652,   10.3065805,    3.6660068
   5653,   9.92743301,    25.269331
   5654,   11.1605797,   35.2968826
   5655,   12.9307995,   20.7426205
   5656,   10.1980762,   38.8689537
   5657,   8.84400558,   40.0543556
   5658,   9.53969193,   39.4729576
   5659,   11.3801527,   36.6274071
*********************** RECTENGULAR ***************************
*User element, nodes=4, type=U2, properties=7, coordinates=2, VARIABLES=16
1,2
1,11
1,4
***************************************************************
*********************** TRIANGULAR ****************************
*User element, nodes=3, type=U1, properties=7, coordinates=2, VARIABLES=12
1,2
1,11
1,4
***************************************************************
***************************************************************
*Element, type=U2
1, 1,   2, 551, 45
2, 2,  25, 552, 551
3, 25,  26, 553, 552
4, 26,  3, 27, 553
5, 45, 551, 554, 44
6, 551, 552, 555, 554
7, 552, 553, 556, 555
8, 553,  27,  28, 556
9, 44, 554, 557, 43
10, 554, 555, 558, 557
11, 555, 556, 559, 558
12, 556,  28,  29, 559
13, 43, 557, 560, 42
14, 557, 558, 561, 560
15, 558, 559, 562, 561
16, 559,  29,  30, 562
17, 42, 560, 563, 41
18, 560, 561, 564, 563
19, 561, 562, 565, 564
20, 562,  30,  31, 565
21, 41, 563, 566, 40
22, 563, 564, 567, 566
23, 564, 565, 568, 567
24, 565,  31,  32, 568
25, 40, 566, 569, 39
26, 566, 567, 570, 569
27, 567, 568, 571, 570
28, 568,  32,  33, 571
29, 39, 569, 572, 38
30, 569, 570, 573, 572
31, 570, 571, 574, 573
32, 571,  33,  34, 574
33, 38, 572,  37, 5
34, 572, 573,  36, 37
35, 573, 574,  35, 36
36, 574,  34,   4, 35
37, 6,  46, 575, 160
38, 46,  47, 576, 575
39, 47,  48, 577, 576
40, 48,  49, 578, 577
41, 49,  50, 579, 578
42, 50,  51, 580, 579
43, 51,  52, 581, 580
44, 52,  53, 582, 581
45, 53,  54, 583, 582
46, 54,  55, 584, 583
47, 55,   7, 585, 584
48, 7,  56, 586, 585
49, 56,  57, 587, 586
50, 57,  58, 588, 587
51, 58,  59, 589, 588
52, 59,  60, 590, 589
53, 60,  61, 591, 590
54, 61,  62, 592, 591
55, 62,  63, 593, 592
56, 63,  8, 64, 593
57, 160, 575, 594, 159
58, 575, 576, 595, 594
59, 576, 577, 596, 595
60, 577, 578, 597, 596
61, 578, 579, 598, 597
62, 579, 580, 599, 598
63, 580, 581, 600, 599
64, 581, 582, 601, 600
65, 582, 583, 602, 601
66, 583, 584, 603, 602
67, 584, 585, 604, 603
68, 585, 586, 605, 604
69, 586, 587, 606, 605
70, 587, 588, 607, 606
71, 588, 589, 608, 607
72, 589, 590, 609, 608
73, 590, 591, 610, 609
74, 591, 592, 611, 610
75, 592, 593, 612, 611
76, 593,  64,  65, 612
77, 159, 594, 613, 158
78, 594, 595, 614, 613
79, 595, 596, 615, 614
80, 596, 597, 616, 615
81, 597, 598, 617, 616
82, 598, 599, 618, 617
83, 599, 600, 619, 618
84, 600, 601, 620, 619
85, 601, 602, 621, 620
86, 602, 603, 622, 621
87, 603, 604, 623, 622
88, 604, 605, 624, 623
89, 605, 606, 625, 624
90, 606, 607, 626, 625
91, 607, 608, 627, 626
92, 608, 609, 628, 627
93, 609, 610, 629, 628
94, 610, 611, 630, 629
95, 611, 612, 631, 630
96, 612,  65,  66, 631
97, 158, 613, 632, 157
98, 613, 614, 633, 632
99, 614, 615, 634, 633
100, 615, 616, 635, 634
101, 616, 617, 636, 635
102, 617, 618, 637, 636
103, 618, 619, 638, 637
104, 619, 620, 639, 638
105, 620, 621, 640, 639
106, 621, 622, 641, 640
107, 622, 623, 642, 641
108, 623, 624, 643, 642
109, 624, 625, 644, 643
110, 625, 626, 645, 644
111, 626, 627, 646, 645
112, 627, 628, 647, 646
113, 628, 629, 648, 647
114, 629, 630, 649, 648
115, 630, 631, 650, 649
116, 631,  66,  67, 650
117, 157, 632, 651, 156
118, 632, 633, 652, 651
119, 633, 634, 653, 652
120, 634, 635, 654, 653
121, 635, 636, 655, 654
122, 636, 637, 656, 655
123, 637, 638, 657, 656
124, 638, 639, 658, 657
125, 639, 640, 659, 658
126, 640, 641, 660, 659
127, 641, 642, 661, 660
128, 642, 643, 662, 661
129, 643, 644, 663, 662
130, 644, 645, 664, 663
131, 645, 646, 665, 664
132, 646, 647, 666, 665
133, 647, 648, 667, 666
134, 648, 649, 668, 667
135, 649, 650, 669, 668
136, 650,  67,  68, 669
137, 156, 651, 670, 155
138, 651, 652, 671, 670
139, 652, 653, 672, 671
140, 653, 654, 673, 672
141, 654, 655, 674, 673
142, 655, 656, 675, 674
143, 656, 657, 676, 675
144, 657, 658, 677, 676
145, 658, 659, 678, 677
146, 659, 660, 679, 678
147, 660, 661, 680, 679
148, 661, 662, 681, 680
149, 662, 663, 682, 681
150, 663, 664, 683, 682
151, 664, 665, 684, 683
152, 665, 666, 685, 684
153, 666, 667, 686, 685
154, 667, 668, 687, 686
155, 668, 669, 688, 687
156, 669,  68,  69, 688
157, 155, 670, 689, 154
158, 670, 671, 690, 689
159, 671, 672, 691, 690
160, 672, 673, 692, 691
161, 673, 674, 693, 692
162, 674, 675, 694, 693
163, 675, 676, 695, 694
164, 676, 677, 696, 695
165, 677, 678, 697, 696
166, 678, 679, 698, 697
167, 679, 680, 699, 698
168, 680, 681, 700, 699
169, 681, 682, 701, 700
170, 682, 683, 702, 701
171, 683, 684, 703, 702
172, 684, 685, 704, 703
173, 685, 686, 705, 704
174, 686, 687, 706, 705
175, 687, 688, 707, 706
176, 688,  69,  70, 707
177, 154, 689, 708, 153
178, 689, 690, 709, 708
179, 690, 691, 710, 709
180, 691, 692, 711, 710
181, 692, 693, 712, 711
182, 693, 694, 713, 712
183, 694, 695, 714, 713
184, 695, 696, 715, 714
185, 696, 697, 716, 715
186, 697, 698, 717, 716
187, 698, 699, 718, 717
188, 699, 700, 719, 718
189, 700, 701, 720, 719
190, 701, 702, 721, 720
191, 702, 703, 722, 721
192, 703, 704, 723, 722
193, 704, 705, 724, 723
194, 705, 706, 725, 724
195, 706, 707, 726, 725
196, 707,  70,  71, 726
197, 153, 708, 727, 152
198, 708, 709, 728, 727
199, 709, 710, 729, 728
200, 710, 711, 730, 729
201, 711, 712, 731, 730
202, 712, 713, 732, 731
203, 713, 714, 733, 732
204, 714, 715, 734, 733
205, 715, 716, 735, 734
206, 716, 717, 736, 735
207, 717, 718, 737, 736
208, 718, 719, 738, 737
209, 719, 720, 739, 738
210, 720, 721, 740, 739
211, 721, 722, 741, 740
212, 722, 723, 742, 741
213, 723, 724, 743, 742
214, 724, 725, 744, 743
215, 725, 726, 745, 744
216, 726,  71,  72, 745
217, 152, 727, 746, 151
218, 727, 728, 747, 746
219, 728, 729, 748, 747
220, 729, 730, 749, 748
221, 730, 731, 750, 749
222, 731, 732, 751, 750
223, 732, 733, 752, 751
224, 733, 734, 753, 752
225, 734, 735, 754, 753
226, 735, 736, 755, 754
227, 736, 737, 756, 755
228, 737, 738, 757, 756
229, 738, 739, 758, 757
230, 739, 740, 759, 758
231, 740, 741, 760, 759
232, 741, 742, 761, 760
233, 742, 743, 762, 761
234, 743, 744, 763, 762
235, 744, 745, 764, 763
236, 745,  72,  73, 764
237, 151, 746, 765, 150
238, 746, 747, 766, 765
239, 747, 748, 767, 766
240, 748, 749, 768, 767
241, 749, 750, 769, 768
242, 750, 751, 770, 769
243, 751, 752, 771, 770
244, 752, 753, 772, 771
245, 753, 754, 773, 772
246, 754, 755, 774, 773
247, 755, 756, 775, 774
248, 756, 757, 776, 775
249, 757, 758, 777, 776
250, 758, 759, 778, 777
251, 759, 760, 779, 778
252, 760, 761, 780, 779
253, 761, 762, 781, 780
254, 762, 763, 782, 781
255, 763, 764, 783, 782
256, 764,  73,  74, 783
257, 150, 765, 784, 149
258, 765, 766, 785, 784
259, 766, 767, 786, 785
260, 767, 768, 787, 786
261, 768, 769, 788, 787
262, 769, 770, 789, 788
263, 770, 771, 790, 789
264, 771, 772, 791, 790
265, 772, 773, 792, 791
266, 773, 774, 793, 792
267, 774, 775, 794, 793
268, 775, 776, 795, 794
269, 776, 777, 796, 795
270, 777, 778, 797, 796
271, 778, 779, 798, 797
272, 779, 780, 799, 798
273, 780, 781, 800, 799
274, 781, 782, 801, 800
275, 782, 783, 802, 801
276, 783,  74,  75, 802
277, 149, 784, 803, 148
278, 784, 785, 804, 803
279, 785, 786, 805, 804
280, 786, 787, 806, 805
281, 787, 788, 807, 806
282, 788, 789, 808, 807
283, 789, 790, 809, 808
284, 790, 791, 810, 809
285, 791, 792, 811, 810
286, 792, 793, 812, 811
287, 793, 794, 813, 812
288, 794, 795, 814, 813
289, 795, 796, 815, 814
290, 796, 797, 816, 815
291, 797, 798, 817, 816
292, 798, 799, 818, 817
293, 799, 800, 819, 818
294, 800, 801, 820, 819
295, 801, 802, 821, 820
296, 802,  75,  76, 821
297, 148, 803, 822, 147
298, 803, 804, 823, 822
299, 804, 805, 824, 823
300, 805, 806, 825, 824
301, 806, 807, 826, 825
302, 807, 808, 827, 826
303, 808, 809, 828, 827
304, 809, 810, 829, 828
305, 810, 811, 830, 829
306, 811, 812, 831, 830
307, 812, 813, 832, 831
308, 813, 814, 833, 832
309, 814, 815, 834, 833
310, 815, 816, 835, 834
311, 816, 817, 836, 835
312, 817, 818, 837, 836
313, 818, 819, 838, 837
314, 819, 820, 839, 838
315, 820, 821, 840, 839
316, 821,  76,  77, 840
317, 147, 822, 841, 146
318, 822, 823, 842, 841
319, 823, 824, 843, 842
320, 824, 825, 844, 843
321, 825, 826, 845, 844
322, 826, 827, 846, 845
323, 827, 828, 847, 846
324, 828, 829, 848, 847
325, 829, 830, 849, 848
326, 830, 831, 850, 849
327, 831, 832, 851, 850
328, 832, 833, 852, 851
329, 833, 834, 853, 852
330, 834, 835, 854, 853
331, 835, 836, 855, 854
332, 836, 837, 856, 855
333, 837, 838, 857, 856
334, 838, 839, 858, 857
335, 839, 840, 859, 858
336, 840,  77,  78, 859
337, 146, 841, 860, 145
338, 841, 842, 861, 860
339, 842, 843, 862, 861
340, 843, 844, 863, 862
341, 844, 845, 864, 863
342, 845, 846, 865, 864
343, 846, 847, 866, 865
344, 847, 848, 867, 866
345, 848, 849, 868, 867
346, 849, 850, 869, 868
347, 850, 851, 870, 869
348, 851, 852, 871, 870
349, 852, 853, 872, 871
350, 853, 854, 873, 872
351, 854, 855, 874, 873
352, 855, 856, 875, 874
353, 856, 857, 876, 875
354, 857, 858, 877, 876
355, 858, 859, 878, 877
356, 859,  78,  79, 878
357, 145, 860, 879, 144
358, 860, 861, 880, 879
359, 861, 862, 881, 880
360, 862, 863, 882, 881
361, 863, 864, 883, 882
362, 864, 865, 884, 883
363, 865, 866, 885, 884
364, 866, 867, 886, 885
365, 867, 868, 887, 886
366, 868, 869, 888, 887
367, 869, 870, 889, 888
368, 870, 871, 890, 889
369, 871, 872, 891, 890
370, 872, 873, 892, 891
371, 873, 874, 893, 892
372, 874, 875, 894, 893
373, 875, 876, 895, 894
374, 876, 877, 896, 895
375, 877, 878, 897, 896
376, 878,  79,  80, 897
377, 144, 879, 898, 143
378, 879, 880, 899, 898
379, 880, 881, 900, 899
380, 881, 882, 901, 900
381, 882, 883, 902, 901
382, 883, 884, 903, 902
383, 884, 885, 904, 903
384, 885, 886, 905, 904
385, 886, 887, 906, 905
386, 887, 888, 907, 906
387, 888, 889, 908, 907
388, 889, 890, 909, 908
389, 890, 891, 910, 909
390, 891, 892, 911, 910
391, 892, 893, 912, 911
392, 893, 894, 913, 912
393, 894, 895, 914, 913
394, 895, 896, 915, 914
395, 896, 897, 916, 915
396, 897,  80,  81, 916
397, 143, 898, 917, 142
398, 898, 899, 918, 917
399, 899, 900, 919, 918
400, 900, 901, 920, 919
401, 901, 902, 921, 920
402, 902, 903, 922, 921
403, 903, 904, 923, 922
404, 904, 905, 924, 923
405, 905, 906, 925, 924
406, 906, 907, 926, 925
407, 907, 908, 927, 926
408, 908, 909, 928, 927
409, 909, 910, 929, 928
410, 910, 911, 930, 929
411, 911, 912, 931, 930
412, 912, 913, 932, 931
413, 913, 914, 933, 932
414, 914, 915, 934, 933
415, 915, 916, 935, 934
416, 916,  81,  82, 935
417, 142, 917, 936, 141
418, 917, 918, 937, 936
419, 918, 919, 938, 937
420, 919, 920, 939, 938
421, 920, 921, 940, 939
422, 921, 922, 941, 940
423, 922, 923, 942, 941
424, 923, 924, 943, 942
425, 924, 925, 944, 943
426, 925, 926, 945, 944
427, 926, 927, 946, 945
428, 927, 928, 947, 946
429, 928, 929, 948, 947
430, 929, 930, 949, 948
431, 930, 931, 950, 949
432, 931, 932, 951, 950
433, 932, 933, 952, 951
434, 933, 934, 953, 952
435, 934, 935, 954, 953
436, 935,  82,  83, 954
437, 141, 936, 955, 140
438, 936, 937, 956, 955
439, 937, 938, 957, 956
440, 938, 939, 958, 957
441, 939, 940, 959, 958
442, 940, 941, 960, 959
443, 941, 942, 961, 960
444, 942, 943, 962, 961
445, 943, 944, 963, 962
446, 944, 945, 964, 963
447, 945, 946, 965, 964
448, 946, 947, 966, 965
449, 947, 948, 967, 966
450, 948, 949, 968, 967
451, 949, 950, 969, 968
452, 950, 951, 970, 969
453, 951, 952, 971, 970
454, 952, 953, 972, 971
455, 953, 954, 973, 972
456, 954,  83,  84, 973
457, 140, 955, 974, 139
458, 955, 956, 975, 974
459, 956, 957, 976, 975
460, 957, 958, 977, 976
461, 958, 959, 978, 977
462, 959, 960, 979, 978
463, 960, 961, 980, 979
464, 961, 962, 981, 980
465, 962, 963, 982, 981
466, 963, 964, 983, 982
467, 964, 965, 984, 983
468, 965, 966, 985, 984
469, 966, 967, 986, 985
470, 967, 968, 987, 986
471, 968, 969, 988, 987
472, 969, 970, 989, 988
473, 970, 971, 990, 989
474, 971, 972, 991, 990
475, 972, 973, 992, 991
476, 973,  84,  85, 992
477, 139, 974, 993, 138
478, 974, 975, 994, 993
479, 975, 976, 995, 994
480, 976, 977, 996, 995
481, 977, 978, 997, 996
482, 978, 979, 998, 997
483, 979, 980, 999, 998
484, 980,  981, 1000, 999
485, 981,  982, 1001, 1000
486, 982,  983, 1002, 1001
487, 983,  984, 1003, 1002
488, 984,  985, 1004, 1003
489, 985,  986, 1005, 1004
490, 986,  987, 1006, 1005
491, 987,  988, 1007, 1006
492, 988,  989, 1008, 1007
493, 989,  990, 1009, 1008
494, 990,  991, 1010, 1009
495, 991,  992, 1011, 1010
496, 992,  85,  86, 1011
497, 138,  993, 1012, 137
498, 993,  994, 1013, 1012
499, 994,  995, 1014, 1013
500, 995,  996, 1015, 1014
501, 996,  997, 1016, 1015
502, 997,  998, 1017, 1016
503, 998,  999, 1018, 1017
504, 999, 1000, 1019, 1018
505, 1000, 1001, 1020, 1019
506, 1001, 1002, 1021, 1020
507, 1002, 1003, 1022, 1021
508, 1003, 1004, 1023, 1022
509, 1004, 1005, 1024, 1023
510, 1005, 1006, 1025, 1024
511, 1006, 1007, 1026, 1025
512, 1007, 1008, 1027, 1026
513, 1008, 1009, 1028, 1027
514, 1009, 1010, 1029, 1028
515, 1010, 1011, 1030, 1029
516, 1011,   86,   87, 1030
517, 137, 1012, 1031, 136
518, 1012, 1013, 1032, 1031
519, 1013, 1014, 1033, 1032
520, 1014, 1015, 1034, 1033
521, 1015, 1016, 1035, 1034
522, 1016, 1017, 1036, 1035
523, 1017, 1018, 1037, 1036
524, 1018, 1019, 1038, 1037
525, 1019, 1020, 1039, 1038
526, 1020, 1021, 1040, 1039
527, 1021, 1022, 1041, 1040
528, 1022, 1023, 1042, 1041
529, 1023, 1024, 1043, 1042
530, 1024, 1025, 1044, 1043
531, 1025, 1026, 1045, 1044
532, 1026, 1027, 1046, 1045
533, 1027, 1028, 1047, 1046
534, 1028, 1029, 1048, 1047
535, 1029, 1030, 1049, 1048
536, 1030,   87,   88, 1049
537, 136, 1031, 1050, 135
538, 1031, 1032, 1051, 1050
539, 1032, 1033, 1052, 1051
540, 1033, 1034, 1053, 1052
541, 1034, 1035, 1054, 1053
542, 1035, 1036, 1055, 1054
543, 1036, 1037, 1056, 1055
544, 1037, 1038, 1057, 1056
545, 1038, 1039, 1058, 1057
546, 1039, 1040, 1059, 1058
547, 1040, 1041, 1060, 1059
548, 1041, 1042, 1061, 1060
549, 1042, 1043, 1062, 1061
550, 1043, 1044, 1063, 1062
551, 1044, 1045, 1064, 1063
552, 1045, 1046, 1065, 1064
553, 1046, 1047, 1066, 1065
554, 1047, 1048, 1067, 1066
555, 1048, 1049, 1068, 1067
556, 1049,   88,   89, 1068
557, 135, 1050, 1069, 134
558, 1050, 1051, 1070, 1069
559, 1051, 1052, 1071, 1070
560, 1052, 1053, 1072, 1071
561, 1053, 1054, 1073, 1072
562, 1054, 1055, 1074, 1073
563, 1055, 1056, 1075, 1074
564, 1056, 1057, 1076, 1075
565, 1057, 1058, 1077, 1076
566, 1058, 1059, 1078, 1077
567, 1059, 1060, 1079, 1078
568, 1060, 1061, 1080, 1079
569, 1061, 1062, 1081, 1080
570, 1062, 1063, 1082, 1081
571, 1063, 1064, 1083, 1082
572, 1064, 1065, 1084, 1083
573, 1065, 1066, 1085, 1084
574, 1066, 1067, 1086, 1085
575, 1067, 1068, 1087, 1086
576, 1068,   89,   90, 1087
577, 134, 1069, 1088, 133
578, 1069, 1070, 1089, 1088
579, 1070, 1071, 1090, 1089
580, 1071, 1072, 1091, 1090
581, 1072, 1073, 1092, 1091
582, 1073, 1074, 1093, 1092
583, 1074, 1075, 1094, 1093
584, 1075, 1076, 1095, 1094
585, 1076, 1077, 1096, 1095
586, 1077, 1078, 1097, 1096
587, 1078, 1079, 1098, 1097
588, 1079, 1080, 1099, 1098
589, 1080, 1081, 1100, 1099
590, 1081, 1082, 1101, 1100
591, 1082, 1083, 1102, 1101
592, 1083, 1084, 1103, 1102
593, 1084, 1085, 1104, 1103
594, 1085, 1086, 1105, 1104
595, 1086, 1087, 1106, 1105
596, 1087,   90,   91, 1106
597, 133, 1088, 1107, 132
598, 1088, 1089, 1108, 1107
599, 1089, 1090, 1109, 1108
600, 1090, 1091, 1110, 1109
601, 1091, 1092, 1111, 1110
602, 1092, 1093, 1112, 1111
603, 1093, 1094, 1113, 1112
604, 1094, 1095, 1114, 1113
605, 1095, 1096, 1115, 1114
606, 1096, 1097, 1116, 1115
607, 1097, 1098, 1117, 1116
608, 1098, 1099, 1118, 1117
609, 1099, 1100, 1119, 1118
610, 1100, 1101, 1120, 1119
611, 1101, 1102, 1121, 1120
612, 1102, 1103, 1122, 1121
613, 1103, 1104, 1123, 1122
614, 1104, 1105, 1124, 1123
615, 1105, 1106, 1125, 1124
616, 1106,   91,   92, 1125
617, 132, 1107, 1126, 131
618, 1107, 1108, 1127, 1126
619, 1108, 1109, 1128, 1127
620, 1109, 1110, 1129, 1128
621, 1110, 1111, 1130, 1129
622, 1111, 1112, 1131, 1130
623, 1112, 1113, 1132, 1131
624, 1113, 1114, 1133, 1132
625, 1114, 1115, 1134, 1133
626, 1115, 1116, 1135, 1134
627, 1116, 1117, 1136, 1135
628, 1117, 1118, 1137, 1136
629, 1118, 1119, 1138, 1137
630, 1119, 1120, 1139, 1138
631, 1120, 1121, 1140, 1139
632, 1121, 1122, 1141, 1140
633, 1122, 1123, 1142, 1141
634, 1123, 1124, 1143, 1142
635, 1124, 1125, 1144, 1143
636, 1125,   92,   93, 1144
637, 131, 1126, 1145, 130
638, 1126, 1127, 1146, 1145
639, 1127, 1128, 1147, 1146
640, 1128, 1129, 1148, 1147
641, 1129, 1130, 1149, 1148
642, 1130, 1131, 1150, 1149
643, 1131, 1132, 1151, 1150
644, 1132, 1133, 1152, 1151
645, 1133, 1134, 1153, 1152
646, 1134, 1135, 1154, 1153
647, 1135, 1136, 1155, 1154
648, 1136, 1137, 1156, 1155
649, 1137, 1138, 1157, 1156
650, 1138, 1139, 1158, 1157
651, 1139, 1140, 1159, 1158
652, 1140, 1141, 1160, 1159
653, 1141, 1142, 1161, 1160
654, 1142, 1143, 1162, 1161
655, 1143, 1144, 1163, 1162
656, 1144,   93,   94, 1163
657, 130, 1145, 1164, 129
658, 1145, 1146, 1165, 1164
659, 1146, 1147, 1166, 1165
660, 1147, 1148, 1167, 1166
661, 1148, 1149, 1168, 1167
662, 1149, 1150, 1169, 1168
663, 1150, 1151, 1170, 1169
664, 1151, 1152, 1171, 1170
665, 1152, 1153, 1172, 1171
666, 1153, 1154, 1173, 1172
667, 1154, 1155, 1174, 1173
668, 1155, 1156, 1175, 1174
669, 1156, 1157, 1176, 1175
670, 1157, 1158, 1177, 1176
671, 1158, 1159, 1178, 1177
672, 1159, 1160, 1179, 1178
673, 1160, 1161, 1180, 1179
674, 1161, 1162, 1181, 1180
675, 1162, 1163, 1182, 1181
676, 1163,   94,   95, 1182
677, 129, 1164, 1183, 128
678, 1164, 1165, 1184, 1183
679, 1165, 1166, 1185, 1184
680, 1166, 1167, 1186, 1185
681, 1167, 1168, 1187, 1186
682, 1168, 1169, 1188, 1187
683, 1169, 1170, 1189, 1188
684, 1170, 1171, 1190, 1189
685, 1171, 1172, 1191, 1190
686, 1172, 1173, 1192, 1191
687, 1173, 1174, 1193, 1192
688, 1174, 1175, 1194, 1193
689, 1175, 1176, 1195, 1194
690, 1176, 1177, 1196, 1195
691, 1177, 1178, 1197, 1196
692, 1178, 1179, 1198, 1197
693, 1179, 1180, 1199, 1198
694, 1180, 1181, 1200, 1199
695, 1181, 1182, 1201, 1200
696, 1182,   95,   96, 1201
697, 128, 1183, 1202, 127
698, 1183, 1184, 1203, 1202
699, 1184, 1185, 1204, 1203
700, 1185, 1186, 1205, 1204
701, 1186, 1187, 1206, 1205
702, 1187, 1188, 1207, 1206
703, 1188, 1189, 1208, 1207
704, 1189, 1190, 1209, 1208
705, 1190, 1191, 1210, 1209
706, 1191, 1192, 1211, 1210
707, 1192, 1193, 1212, 1211
708, 1193, 1194, 1213, 1212
709, 1194, 1195, 1214, 1213
710, 1195, 1196, 1215, 1214
711, 1196, 1197, 1216, 1215
712, 1197, 1198, 1217, 1216
713, 1198, 1199, 1218, 1217
714, 1199, 1200, 1219, 1218
715, 1200, 1201, 1220, 1219
716, 1201,   96,   97, 1220
717, 127, 1202, 1221, 126
718, 1202, 1203, 1222, 1221
719, 1203, 1204, 1223, 1222
720, 1204, 1205, 1224, 1223
721, 1205, 1206, 1225, 1224
722, 1206, 1207, 1226, 1225
723, 1207, 1208, 1227, 1226
724, 1208, 1209, 1228, 1227
725, 1209, 1210, 1229, 1228
726, 1210, 1211, 1230, 1229
727, 1211, 1212, 1231, 1230
728, 1212, 1213, 1232, 1231
729, 1213, 1214, 1233, 1232
730, 1214, 1215, 1234, 1233
731, 1215, 1216, 1235, 1234
732, 1216, 1217, 1236, 1235
733, 1217, 1218, 1237, 1236
734, 1218, 1219, 1238, 1237
735, 1219, 1220, 1239, 1238
736, 1220,   97,   98, 1239
737, 126, 1221, 1240, 125
738, 1221, 1222, 1241, 1240
739, 1222, 1223, 1242, 1241
740, 1223, 1224, 1243, 1242
741, 1224, 1225, 1244, 1243
742, 1225, 1226, 1245, 1244
743, 1226, 1227, 1246, 1245
744, 1227, 1228, 1247, 1246
745, 1228, 1229, 1248, 1247
746, 1229, 1230, 1249, 1248
747, 1230, 1231, 1250, 1249
748, 1231, 1232, 1251, 1250
749, 1232, 1233, 1252, 1251
750, 1233, 1234, 1253, 1252
751, 1234, 1235, 1254, 1253
752, 1235, 1236, 1255, 1254
753, 1236, 1237, 1256, 1255
754, 1237, 1238, 1257, 1256
755, 1238, 1239, 1258, 1257
756, 1239,   98,   99, 1258
757, 125, 1240, 1259, 124
758, 1240, 1241, 1260, 1259
759, 1241, 1242, 1261, 1260
760, 1242, 1243, 1262, 1261
761, 1243, 1244, 1263, 1262
762, 1244, 1245, 1264, 1263
763, 1245, 1246, 1265, 1264
764, 1246, 1247, 1266, 1265
765, 1247, 1248, 1267, 1266
766, 1248, 1249, 1268, 1267
767, 1249, 1250, 1269, 1268
768, 1250, 1251, 1270, 1269
769, 1251, 1252, 1271, 1270
770, 1252, 1253, 1272, 1271
771, 1253, 1254, 1273, 1272
772, 1254, 1255, 1274, 1273
773, 1255, 1256, 1275, 1274
774, 1256, 1257, 1276, 1275
775, 1257, 1258, 1277, 1276
776, 1258,   99,  100, 1277
777, 124, 1259, 1278, 123
778, 1259, 1260, 1279, 1278
779, 1260, 1261, 1280, 1279
780, 1261, 1262, 1281, 1280
781, 1262, 1263, 1282, 1281
782, 1263, 1264, 1283, 1282
783, 1264, 1265, 1284, 1283
784, 1265, 1266, 1285, 1284
785, 1266, 1267, 1286, 1285
786, 1267, 1268, 1287, 1286
787, 1268, 1269, 1288, 1287
788, 1269, 1270, 1289, 1288
789, 1270, 1271, 1290, 1289
790, 1271, 1272, 1291, 1290
791, 1272, 1273, 1292, 1291
792, 1273, 1274, 1293, 1292
793, 1274, 1275, 1294, 1293
794, 1275, 1276, 1295, 1294
795, 1276, 1277, 1296, 1295
796, 1277,  100,  101, 1296
797, 123, 1278, 1297, 122
798, 1278, 1279, 1298, 1297
799, 1279, 1280, 1299, 1298
800, 1280, 1281, 1300, 1299
801, 1281, 1282, 1301, 1300
802, 1282, 1283, 1302, 1301
803, 1283, 1284, 1303, 1302
804, 1284, 1285, 1304, 1303
805, 1285, 1286, 1305, 1304
806, 1286, 1287, 1306, 1305
807, 1287, 1288, 1307, 1306
808, 1288, 1289, 1308, 1307
809, 1289, 1290, 1309, 1308
810, 1290, 1291, 1310, 1309
811, 1291, 1292, 1311, 1310
812, 1292, 1293, 1312, 1311
813, 1293, 1294, 1313, 1312
814, 1294, 1295, 1314, 1313
815, 1295, 1296, 1315, 1314
816, 1296,  101,  102, 1315
817, 122, 1297,  121, 10
818, 1297, 1298,  120, 121
819, 1298, 1299,  119, 120
820, 1299, 1300,  118, 119
821, 1300, 1301,  117, 118
822, 1301, 1302,  116, 117
823, 1302, 1303,  115, 116
824, 1303, 1304,  114, 115
825, 1304, 1305,  113, 114
826, 1305, 1306,  112, 113
827, 1306, 1307,  111, 112
828, 1307, 1308,  110, 111
829, 1308, 1309,  109, 110
830, 1309, 1310,  108, 109
831, 1310, 1311,  107, 108
832, 1311, 1312,  106, 107
833, 1312, 1313,  105, 106
834, 1313, 1314,  104, 105
835, 1314, 1315,  103, 104
836, 1315,  102,    9, 103
837, 4,   34, 1316, 267
838, 34,   33, 1317, 1316
839, 33,   32, 1318, 1317
840, 32,   31, 1319, 1318
841, 31,   30, 1320, 1319
842, 30,   29, 1321, 1320
843, 29,   28, 1322, 1321
844, 28,   27, 1323, 1322
845, 27,    3, 1324, 1323
846, 3,  161, 1325, 1324
847, 161,  162, 1326, 1325
848, 162,  163, 1327, 1326
849, 163,  164, 1328, 1327
850, 164,  165, 1329, 1328
851, 165,  166, 1330, 1329
852, 166,  167, 1331, 1330
853, 167,  168, 1332, 1331
854, 168,  169, 1333, 1332
855, 169,  170, 1334, 1333
856, 170,  11, 171, 1334
857, 267, 1316, 1335, 266
858, 1316, 1317, 1336, 1335
859, 1317, 1318, 1337, 1336
860, 1318, 1319, 1338, 1337
861, 1319, 1320, 1339, 1338
862, 1320, 1321, 1340, 1339
863, 1321, 1322, 1341, 1340
864, 1322, 1323, 1342, 1341
865, 1323, 1324, 1343, 1342
866, 1324, 1325, 1344, 1343
867, 1325, 1326, 1345, 1344
868, 1326, 1327, 1346, 1345
869, 1327, 1328, 1347, 1346
870, 1328, 1329, 1348, 1347
871, 1329, 1330, 1349, 1348
872, 1330, 1331, 1350, 1349
873, 1331, 1332, 1351, 1350
874, 1332, 1333, 1352, 1351
875, 1333, 1334, 1353, 1352
876, 1334,  171,  172, 1353
877, 266, 1335, 1354, 265
878, 1335, 1336, 1355, 1354
879, 1336, 1337, 1356, 1355
880, 1337, 1338, 1357, 1356
881, 1338, 1339, 1358, 1357
882, 1339, 1340, 1359, 1358
883, 1340, 1341, 1360, 1359
884, 1341, 1342, 1361, 1360
885, 1342, 1343, 1362, 1361
886, 1343, 1344, 1363, 1362
887, 1344, 1345, 1364, 1363
888, 1345, 1346, 1365, 1364
889, 1346, 1347, 1366, 1365
890, 1347, 1348, 1367, 1366
891, 1348, 1349, 1368, 1367
892, 1349, 1350, 1369, 1368
893, 1350, 1351, 1370, 1369
894, 1351, 1352, 1371, 1370
895, 1352, 1353, 1372, 1371
896, 1353,  172,  173, 1372
897, 265, 1354, 1373, 264
898, 1354, 1355, 1374, 1373
899, 1355, 1356, 1375, 1374
900, 1356, 1357, 1376, 1375
901, 1357, 1358, 1377, 1376
902, 1358, 1359, 1378, 1377
903, 1359, 1360, 1379, 1378
904, 1360, 1361, 1380, 1379
905, 1361, 1362, 1381, 1380
906, 1362, 1363, 1382, 1381
907, 1363, 1364, 1383, 1382
908, 1364, 1365, 1384, 1383
909, 1365, 1366, 1385, 1384
910, 1366, 1367, 1386, 1385
911, 1367, 1368, 1387, 1386
912, 1368, 1369, 1388, 1387
913, 1369, 1370, 1389, 1388
914, 1370, 1371, 1390, 1389
915, 1371, 1372, 1391, 1390
916, 1372,  173,  174, 1391
917, 264, 1373, 1392, 263
918, 1373, 1374, 1393, 1392
919, 1374, 1375, 1394, 1393
920, 1375, 1376, 1395, 1394
921, 1376, 1377, 1396, 1395
922, 1377, 1378, 1397, 1396
923, 1378, 1379, 1398, 1397
924, 1379, 1380, 1399, 1398
925, 1380, 1381, 1400, 1399
926, 1381, 1382, 1401, 1400
927, 1382, 1383, 1402, 1401
928, 1383, 1384, 1403, 1402
929, 1384, 1385, 1404, 1403
930, 1385, 1386, 1405, 1404
931, 1386, 1387, 1406, 1405
932, 1387, 1388, 1407, 1406
933, 1388, 1389, 1408, 1407
934, 1389, 1390, 1409, 1408
935, 1390, 1391, 1410, 1409
936, 1391,  174,  175, 1410
937, 263, 1392, 1411, 262
938, 1392, 1393, 1412, 1411
939, 1393, 1394, 1413, 1412
940, 1394, 1395, 1414, 1413
941, 1395, 1396, 1415, 1414
942, 1396, 1397, 1416, 1415
943, 1397, 1398, 1417, 1416
944, 1398, 1399, 1418, 1417
945, 1399, 1400, 1419, 1418
946, 1400, 1401, 1420, 1419
947, 1401, 1402, 1421, 1420
948, 1402, 1403, 1422, 1421
949, 1403, 1404, 1423, 1422
950, 1404, 1405, 1424, 1423
951, 1405, 1406, 1425, 1424
952, 1406, 1407, 1426, 1425
953, 1407, 1408, 1427, 1426
954, 1408, 1409, 1428, 1427
955, 1409, 1410, 1429, 1428
956, 1410,  175,  176, 1429
957, 262, 1411, 1430, 261
958, 1411, 1412, 1431, 1430
959, 1412, 1413, 1432, 1431
960, 1413, 1414, 1433, 1432
961, 1414, 1415, 1434, 1433
962, 1415, 1416, 1435, 1434
963, 1416, 1417, 1436, 1435
964, 1417, 1418, 1437, 1436
965, 1418, 1419, 1438, 1437
966, 1419, 1420, 1439, 1438
967, 1420, 1421, 1440, 1439
968, 1421, 1422, 1441, 1440
969, 1422, 1423, 1442, 1441
970, 1423, 1424, 1443, 1442
971, 1424, 1425, 1444, 1443
972, 1425, 1426, 1445, 1444
973, 1426, 1427, 1446, 1445
974, 1427, 1428, 1447, 1446
975, 1428, 1429, 1448, 1447
976, 1429,  176,  177, 1448
977, 261, 1430, 1449, 260
978, 1430, 1431, 1450, 1449
979, 1431, 1432, 1451, 1450
980, 1432, 1433, 1452, 1451
981, 1433, 1434, 1453, 1452
982, 1434, 1435, 1454, 1453
983, 1435, 1436, 1455, 1454
984, 1436, 1437, 1456, 1455
985, 1437, 1438, 1457, 1456
986, 1438, 1439, 1458, 1457
987, 1439, 1440, 1459, 1458
988, 1440, 1441, 1460, 1459
989, 1441, 1442, 1461, 1460
990, 1442, 1443, 1462, 1461
991, 1443, 1444, 1463, 1462
992, 1444, 1445, 1464, 1463
993, 1445, 1446, 1465, 1464
994, 1446, 1447, 1466, 1465
995, 1447, 1448, 1467, 1466
996, 1448,  177,  178, 1467
997, 260, 1449, 1468, 259
998, 1449, 1450, 1469, 1468
999, 1450, 1451, 1470, 1469
1000, 1451, 1452, 1471, 1470
1001, 1452, 1453, 1472, 1471
1002, 1453, 1454, 1473, 1472
1003, 1454, 1455, 1474, 1473
1004, 1455, 1456, 1475, 1474
1005, 1456, 1457, 1476, 1475
1006, 1457, 1458, 1477, 1476
1007, 1458, 1459, 1478, 1477
1008, 1459, 1460, 1479, 1478
1009, 1460, 1461, 1480, 1479
1010, 1461, 1462, 1481, 1480
1011, 1462, 1463, 1482, 1481
1012, 1463, 1464, 1483, 1482
1013, 1464, 1465, 1484, 1483
1014, 1465, 1466, 1485, 1484
1015, 1466, 1467, 1486, 1485
1016, 1467,  178,  179, 1486
1017, 259, 1468, 1487, 258
1018, 1468, 1469, 1488, 1487
1019, 1469, 1470, 1489, 1488
1020, 1470, 1471, 1490, 1489
1021, 1471, 1472, 1491, 1490
1022, 1472, 1473, 1492, 1491
1023, 1473, 1474, 1493, 1492
1024, 1474, 1475, 1494, 1493
1025, 1475, 1476, 1495, 1494
1026, 1476, 1477, 1496, 1495
1027, 1477, 1478, 1497, 1496
1028, 1478, 1479, 1498, 1497
1029, 1479, 1480, 1499, 1498
1030, 1480, 1481, 1500, 1499
1031, 1481, 1482, 1501, 1500
1032, 1482, 1483, 1502, 1501
1033, 1483, 1484, 1503, 1502
1034, 1484, 1485, 1504, 1503
1035, 1485, 1486, 1505, 1504
1036, 1486,  179,  180, 1505
1037, 258, 1487, 1506, 257
1038, 1487, 1488, 1507, 1506
1039, 1488, 1489, 1508, 1507
1040, 1489, 1490, 1509, 1508
1041, 1490, 1491, 1510, 1509
1042, 1491, 1492, 1511, 1510
1043, 1492, 1493, 1512, 1511
1044, 1493, 1494, 1513, 1512
1045, 1494, 1495, 1514, 1513
1046, 1495, 1496, 1515, 1514
1047, 1496, 1497, 1516, 1515
1048, 1497, 1498, 1517, 1516
1049, 1498, 1499, 1518, 1517
1050, 1499, 1500, 1519, 1518
1051, 1500, 1501, 1520, 1519
1052, 1501, 1502, 1521, 1520
1053, 1502, 1503, 1522, 1521
1054, 1503, 1504, 1523, 1522
1055, 1504, 1505, 1524, 1523
1056, 1505,  180,  181, 1524
1057, 257, 1506, 1525, 256
1058, 1506, 1507, 1526, 1525
1059, 1507, 1508, 1527, 1526
1060, 1508, 1509, 1528, 1527
1061, 1509, 1510, 1529, 1528
1062, 1510, 1511, 1530, 1529
1063, 1511, 1512, 1531, 1530
1064, 1512, 1513, 1532, 1531
1065, 1513, 1514, 1533, 1532
1066, 1514, 1515, 1534, 1533
1067, 1515, 1516, 1535, 1534
1068, 1516, 1517, 1536, 1535
1069, 1517, 1518, 1537, 1536
1070, 1518, 1519, 1538, 1537
1071, 1519, 1520, 1539, 1538
1072, 1520, 1521, 1540, 1539
1073, 1521, 1522, 1541, 1540
1074, 1522, 1523, 1542, 1541
1075, 1523, 1524, 1543, 1542
1076, 1524,  181,  182, 1543
1077, 256, 1525, 1544, 255
1078, 1525, 1526, 1545, 1544
1079, 1526, 1527, 1546, 1545
1080, 1527, 1528, 1547, 1546
1081, 1528, 1529, 1548, 1547
1082, 1529, 1530, 1549, 1548
1083, 1530, 1531, 1550, 1549
1084, 1531, 1532, 1551, 1550
1085, 1532, 1533, 1552, 1551
1086, 1533, 1534, 1553, 1552
1087, 1534, 1535, 1554, 1553
1088, 1535, 1536, 1555, 1554
1089, 1536, 1537, 1556, 1555
1090, 1537, 1538, 1557, 1556
1091, 1538, 1539, 1558, 1557
1092, 1539, 1540, 1559, 1558
1093, 1540, 1541, 1560, 1559
1094, 1541, 1542, 1561, 1560
1095, 1542, 1543, 1562, 1561
1096, 1543,  182,  183, 1562
1097, 255, 1544, 1563, 254
1098, 1544, 1545, 1564, 1563
1099, 1545, 1546, 1565, 1564
1100, 1546, 1547, 1566, 1565
1101, 1547, 1548, 1567, 1566
1102, 1548, 1549, 1568, 1567
1103, 1549, 1550, 1569, 1568
1104, 1550, 1551, 1570, 1569
1105, 1551, 1552, 1571, 1570
1106, 1552, 1553, 1572, 1571
1107, 1553, 1554, 1573, 1572
1108, 1554, 1555, 1574, 1573
1109, 1555, 1556, 1575, 1574
1110, 1556, 1557, 1576, 1575
1111, 1557, 1558, 1577, 1576
1112, 1558, 1559, 1578, 1577
1113, 1559, 1560, 1579, 1578
1114, 1560, 1561, 1580, 1579
1115, 1561, 1562, 1581, 1580
1116, 1562,  183,  184, 1581
1117, 254, 1563, 1582, 253
1118, 1563, 1564, 1583, 1582
1119, 1564, 1565, 1584, 1583
1120, 1565, 1566, 1585, 1584
1121, 1566, 1567, 1586, 1585
1122, 1567, 1568, 1587, 1586
1123, 1568, 1569, 1588, 1587
1124, 1569, 1570, 1589, 1588
1125, 1570, 1571, 1590, 1589
1126, 1571, 1572, 1591, 1590
1127, 1572, 1573, 1592, 1591
1128, 1573, 1574, 1593, 1592
1129, 1574, 1575, 1594, 1593
1130, 1575, 1576, 1595, 1594
1131, 1576, 1577, 1596, 1595
1132, 1577, 1578, 1597, 1596
1133, 1578, 1579, 1598, 1597
1134, 1579, 1580, 1599, 1598
1135, 1580, 1581, 1600, 1599
1136, 1581,  184,  185, 1600
1137, 253, 1582, 1601, 252
1138, 1582, 1583, 1602, 1601
1139, 1583, 1584, 1603, 1602
1140, 1584, 1585, 1604, 1603
1141, 1585, 1586, 1605, 1604
1142, 1586, 1587, 1606, 1605
1143, 1587, 1588, 1607, 1606
1144, 1588, 1589, 1608, 1607
1145, 1589, 1590, 1609, 1608
1146, 1590, 1591, 1610, 1609
1147, 1591, 1592, 1611, 1610
1148, 1592, 1593, 1612, 1611
1149, 1593, 1594, 1613, 1612
1150, 1594, 1595, 1614, 1613
1151, 1595, 1596, 1615, 1614
1152, 1596, 1597, 1616, 1615
1153, 1597, 1598, 1617, 1616
1154, 1598, 1599, 1618, 1617
1155, 1599, 1600, 1619, 1618
1156, 1600,  185,  186, 1619
1157, 252, 1601, 1620, 251
1158, 1601, 1602, 1621, 1620
1159, 1602, 1603, 1622, 1621
1160, 1603, 1604, 1623, 1622
1161, 1604, 1605, 1624, 1623
1162, 1605, 1606, 1625, 1624
1163, 1606, 1607, 1626, 1625
1164, 1607, 1608, 1627, 1626
1165, 1608, 1609, 1628, 1627
1166, 1609, 1610, 1629, 1628
1167, 1610, 1611, 1630, 1629
1168, 1611, 1612, 1631, 1630
1169, 1612, 1613, 1632, 1631
1170, 1613, 1614, 1633, 1632
1171, 1614, 1615, 1634, 1633
1172, 1615, 1616, 1635, 1634
1173, 1616, 1617, 1636, 1635
1174, 1617, 1618, 1637, 1636
1175, 1618, 1619, 1638, 1637
1176, 1619,  186,  187, 1638
1177, 251, 1620, 1639, 250
1178, 1620, 1621, 1640, 1639
1179, 1621, 1622, 1641, 1640
1180, 1622, 1623, 1642, 1641
1181, 1623, 1624, 1643, 1642
1182, 1624, 1625, 1644, 1643
1183, 1625, 1626, 1645, 1644
1184, 1626, 1627, 1646, 1645
1185, 1627, 1628, 1647, 1646
1186, 1628, 1629, 1648, 1647
1187, 1629, 1630, 1649, 1648
1188, 1630, 1631, 1650, 1649
1189, 1631, 1632, 1651, 1650
1190, 1632, 1633, 1652, 1651
1191, 1633, 1634, 1653, 1652
1192, 1634, 1635, 1654, 1653
1193, 1635, 1636, 1655, 1654
1194, 1636, 1637, 1656, 1655
1195, 1637, 1638, 1657, 1656
1196, 1638,  187,  188, 1657
1197, 250, 1639, 1658, 249
1198, 1639, 1640, 1659, 1658
1199, 1640, 1641, 1660, 1659
1200, 1641, 1642, 1661, 1660
1201, 1642, 1643, 1662, 1661
1202, 1643, 1644, 1663, 1662
1203, 1644, 1645, 1664, 1663
1204, 1645, 1646, 1665, 1664
1205, 1646, 1647, 1666, 1665
1206, 1647, 1648, 1667, 1666
1207, 1648, 1649, 1668, 1667
1208, 1649, 1650, 1669, 1668
1209, 1650, 1651, 1670, 1669
1210, 1651, 1652, 1671, 1670
1211, 1652, 1653, 1672, 1671
1212, 1653, 1654, 1673, 1672
1213, 1654, 1655, 1674, 1673
1214, 1655, 1656, 1675, 1674
1215, 1656, 1657, 1676, 1675
1216, 1657,  188,  189, 1676
1217, 249, 1658, 1677, 248
1218, 1658, 1659, 1678, 1677
1219, 1659, 1660, 1679, 1678
1220, 1660, 1661, 1680, 1679
1221, 1661, 1662, 1681, 1680
1222, 1662, 1663, 1682, 1681
1223, 1663, 1664, 1683, 1682
1224, 1664, 1665, 1684, 1683
1225, 1665, 1666, 1685, 1684
1226, 1666, 1667, 1686, 1685
1227, 1667, 1668, 1687, 1686
1228, 1668, 1669, 1688, 1687
1229, 1669, 1670, 1689, 1688
1230, 1670, 1671, 1690, 1689
1231, 1671, 1672, 1691, 1690
1232, 1672, 1673, 1692, 1691
1233, 1673, 1674, 1693, 1692
1234, 1674, 1675, 1694, 1693
1235, 1675, 1676, 1695, 1694
1236, 1676,  189,  190, 1695
1237, 248, 1677, 1696, 247
1238, 1677, 1678, 1697, 1696
1239, 1678, 1679, 1698, 1697
1240, 1679, 1680, 1699, 1698
1241, 1680, 1681, 1700, 1699
1242, 1681, 1682, 1701, 1700
1243, 1682, 1683, 1702, 1701
1244, 1683, 1684, 1703, 1702
1245, 1684, 1685, 1704, 1703
1246, 1685, 1686, 1705, 1704
1247, 1686, 1687, 1706, 1705
1248, 1687, 1688, 1707, 1706
1249, 1688, 1689, 1708, 1707
1250, 1689, 1690, 1709, 1708
1251, 1690, 1691, 1710, 1709
1252, 1691, 1692, 1711, 1710
1253, 1692, 1693, 1712, 1711
1254, 1693, 1694, 1713, 1712
1255, 1694, 1695, 1714, 1713
1256, 1695,  190,  191, 1714
1257, 247, 1696, 1715, 246
1258, 1696, 1697, 1716, 1715
1259, 1697, 1698, 1717, 1716
1260, 1698, 1699, 1718, 1717
1261, 1699, 1700, 1719, 1718
1262, 1700, 1701, 1720, 1719
1263, 1701, 1702, 1721, 1720
1264, 1702, 1703, 1722, 1721
1265, 1703, 1704, 1723, 1722
1266, 1704, 1705, 1724, 1723
1267, 1705, 1706, 1725, 1724
1268, 1706, 1707, 1726, 1725
1269, 1707, 1708, 1727, 1726
1270, 1708, 1709, 1728, 1727
1271, 1709, 1710, 1729, 1728
1272, 1710, 1711, 1730, 1729
1273, 1711, 1712, 1731, 1730
1274, 1712, 1713, 1732, 1731
1275, 1713, 1714, 1733, 1732
1276, 1714,  191,  192, 1733
1277, 246, 1715, 1734, 245
1278, 1715, 1716, 1735, 1734
1279, 1716, 1717, 1736, 1735
1280, 1717, 1718, 1737, 1736
1281, 1718, 1719, 1738, 1737
1282, 1719, 1720, 1739, 1738
1283, 1720, 1721, 1740, 1739
1284, 1721, 1722, 1741, 1740
1285, 1722, 1723, 1742, 1741
1286, 1723, 1724, 1743, 1742
1287, 1724, 1725, 1744, 1743
1288, 1725, 1726, 1745, 1744
1289, 1726, 1727, 1746, 1745
1290, 1727, 1728, 1747, 1746
1291, 1728, 1729, 1748, 1747
1292, 1729, 1730, 1749, 1748
1293, 1730, 1731, 1750, 1749
1294, 1731, 1732, 1751, 1750
1295, 1732, 1733, 1752, 1751
1296, 1733,  192,  193, 1752
1297, 245, 1734, 1753, 244
1298, 1734, 1735, 1754, 1753
1299, 1735, 1736, 1755, 1754
1300, 1736, 1737, 1756, 1755
1301, 1737, 1738, 1757, 1756
1302, 1738, 1739, 1758, 1757
1303, 1739, 1740, 1759, 1758
1304, 1740, 1741, 1760, 1759
1305, 1741, 1742, 1761, 1760
1306, 1742, 1743, 1762, 1761
1307, 1743, 1744, 1763, 1762
1308, 1744, 1745, 1764, 1763
1309, 1745, 1746, 1765, 1764
1310, 1746, 1747, 1766, 1765
1311, 1747, 1748, 1767, 1766
1312, 1748, 1749, 1768, 1767
1313, 1749, 1750, 1769, 1768
1314, 1750, 1751, 1770, 1769
1315, 1751, 1752, 1771, 1770
1316, 1752,  193,  194, 1771
1317, 244, 1753, 1772, 243
1318, 1753, 1754, 1773, 1772
1319, 1754, 1755, 1774, 1773
1320, 1755, 1756, 1775, 1774
1321, 1756, 1757, 1776, 1775
1322, 1757, 1758, 1777, 1776
1323, 1758, 1759, 1778, 1777
1324, 1759, 1760, 1779, 1778
1325, 1760, 1761, 1780, 1779
1326, 1761, 1762, 1781, 1780
1327, 1762, 1763, 1782, 1781
1328, 1763, 1764, 1783, 1782
1329, 1764, 1765, 1784, 1783
1330, 1765, 1766, 1785, 1784
1331, 1766, 1767, 1786, 1785
1332, 1767, 1768, 1787, 1786
1333, 1768, 1769, 1788, 1787
1334, 1769, 1770, 1789, 1788
1335, 1770, 1771, 1790, 1789
1336, 1771,  194,  195, 1790
1337, 243, 1772, 1791, 242
1338, 1772, 1773, 1792, 1791
1339, 1773, 1774, 1793, 1792
1340, 1774, 1775, 1794, 1793
1341, 1775, 1776, 1795, 1794
1342, 1776, 1777, 1796, 1795
1343, 1777, 1778, 1797, 1796
1344, 1778, 1779, 1798, 1797
1345, 1779, 1780, 1799, 1798
1346, 1780, 1781, 1800, 1799
1347, 1781, 1782, 1801, 1800
1348, 1782, 1783, 1802, 1801
1349, 1783, 1784, 1803, 1802
1350, 1784, 1785, 1804, 1803
1351, 1785, 1786, 1805, 1804
1352, 1786, 1787, 1806, 1805
1353, 1787, 1788, 1807, 1806
1354, 1788, 1789, 1808, 1807
1355, 1789, 1790, 1809, 1808
1356, 1790,  195,  196, 1809
1357, 242, 1791, 1810, 241
1358, 1791, 1792, 1811, 1810
1359, 1792, 1793, 1812, 1811
1360, 1793, 1794, 1813, 1812
1361, 1794, 1795, 1814, 1813
1362, 1795, 1796, 1815, 1814
1363, 1796, 1797, 1816, 1815
1364, 1797, 1798, 1817, 1816
1365, 1798, 1799, 1818, 1817
1366, 1799, 1800, 1819, 1818
1367, 1800, 1801, 1820, 1819
1368, 1801, 1802, 1821, 1820
1369, 1802, 1803, 1822, 1821
1370, 1803, 1804, 1823, 1822
1371, 1804, 1805, 1824, 1823
1372, 1805, 1806, 1825, 1824
1373, 1806, 1807, 1826, 1825
1374, 1807, 1808, 1827, 1826
1375, 1808, 1809, 1828, 1827
1376, 1809,  196,  197, 1828
1377, 241, 1810, 1829, 240
1378, 1810, 1811, 1830, 1829
1379, 1811, 1812, 1831, 1830
1380, 1812, 1813, 1832, 1831
1381, 1813, 1814, 1833, 1832
1382, 1814, 1815, 1834, 1833
1383, 1815, 1816, 1835, 1834
1384, 1816, 1817, 1836, 1835
1385, 1817, 1818, 1837, 1836
1386, 1818, 1819, 1838, 1837
1387, 1819, 1820, 1839, 1838
1388, 1820, 1821, 1840, 1839
1389, 1821, 1822, 1841, 1840
1390, 1822, 1823, 1842, 1841
1391, 1823, 1824, 1843, 1842
1392, 1824, 1825, 1844, 1843
1393, 1825, 1826, 1845, 1844
1394, 1826, 1827, 1846, 1845
1395, 1827, 1828, 1847, 1846
1396, 1828,  197,  198, 1847
1397, 240, 1829, 1848, 239
1398, 1829, 1830, 1849, 1848
1399, 1830, 1831, 1850, 1849
1400, 1831, 1832, 1851, 1850
1401, 1832, 1833, 1852, 1851
1402, 1833, 1834, 1853, 1852
1403, 1834, 1835, 1854, 1853
1404, 1835, 1836, 1855, 1854
1405, 1836, 1837, 1856, 1855
1406, 1837, 1838, 1857, 1856
1407, 1838, 1839, 1858, 1857
1408, 1839, 1840, 1859, 1858
1409, 1840, 1841, 1860, 1859
1410, 1841, 1842, 1861, 1860
1411, 1842, 1843, 1862, 1861
1412, 1843, 1844, 1863, 1862
1413, 1844, 1845, 1864, 1863
1414, 1845, 1846, 1865, 1864
1415, 1846, 1847, 1866, 1865
1416, 1847,  198,  199, 1866
1417, 239, 1848, 1867, 238
1418, 1848, 1849, 1868, 1867
1419, 1849, 1850, 1869, 1868
1420, 1850, 1851, 1870, 1869
1421, 1851, 1852, 1871, 1870
1422, 1852, 1853, 1872, 1871
1423, 1853, 1854, 1873, 1872
1424, 1854, 1855, 1874, 1873
1425, 1855, 1856, 1875, 1874
1426, 1856, 1857, 1876, 1875
1427, 1857, 1858, 1877, 1876
1428, 1858, 1859, 1878, 1877
1429, 1859, 1860, 1879, 1878
1430, 1860, 1861, 1880, 1879
1431, 1861, 1862, 1881, 1880
1432, 1862, 1863, 1882, 1881
1433, 1863, 1864, 1883, 1882
1434, 1864, 1865, 1884, 1883
1435, 1865, 1866, 1885, 1884
1436, 1866,  199,  200, 1885
1437, 238, 1867, 1886, 237
1438, 1867, 1868, 1887, 1886
1439, 1868, 1869, 1888, 1887
1440, 1869, 1870, 1889, 1888
1441, 1870, 1871, 1890, 1889
1442, 1871, 1872, 1891, 1890
1443, 1872, 1873, 1892, 1891
1444, 1873, 1874, 1893, 1892
1445, 1874, 1875, 1894, 1893
1446, 1875, 1876, 1895, 1894
1447, 1876, 1877, 1896, 1895
1448, 1877, 1878, 1897, 1896
1449, 1878, 1879, 1898, 1897
1450, 1879, 1880, 1899, 1898
1451, 1880, 1881, 1900, 1899
1452, 1881, 1882, 1901, 1900
1453, 1882, 1883, 1902, 1901
1454, 1883, 1884, 1903, 1902
1455, 1884, 1885, 1904, 1903
1456, 1885,  200,  201, 1904
1457, 237, 1886, 1905, 236
1458, 1886, 1887, 1906, 1905
1459, 1887, 1888, 1907, 1906
1460, 1888, 1889, 1908, 1907
1461, 1889, 1890, 1909, 1908
1462, 1890, 1891, 1910, 1909
1463, 1891, 1892, 1911, 1910
1464, 1892, 1893, 1912, 1911
1465, 1893, 1894, 1913, 1912
1466, 1894, 1895, 1914, 1913
1467, 1895, 1896, 1915, 1914
1468, 1896, 1897, 1916, 1915
1469, 1897, 1898, 1917, 1916
1470, 1898, 1899, 1918, 1917
1471, 1899, 1900, 1919, 1918
1472, 1900, 1901, 1920, 1919
1473, 1901, 1902, 1921, 1920
1474, 1902, 1903, 1922, 1921
1475, 1903, 1904, 1923, 1922
1476, 1904,  201,  202, 1923
1477, 236, 1905, 1924, 235
1478, 1905, 1906, 1925, 1924
1479, 1906, 1907, 1926, 1925
1480, 1907, 1908, 1927, 1926
1481, 1908, 1909, 1928, 1927
1482, 1909, 1910, 1929, 1928
1483, 1910, 1911, 1930, 1929
1484, 1911, 1912, 1931, 1930
1485, 1912, 1913, 1932, 1931
1486, 1913, 1914, 1933, 1932
1487, 1914, 1915, 1934, 1933
1488, 1915, 1916, 1935, 1934
1489, 1916, 1917, 1936, 1935
1490, 1917, 1918, 1937, 1936
1491, 1918, 1919, 1938, 1937
1492, 1919, 1920, 1939, 1938
1493, 1920, 1921, 1940, 1939
1494, 1921, 1922, 1941, 1940
1495, 1922, 1923, 1942, 1941
1496, 1923,  202,  203, 1942
1497, 235, 1924, 1943, 234
1498, 1924, 1925, 1944, 1943
1499, 1925, 1926, 1945, 1944
1500, 1926, 1927, 1946, 1945
1501, 1927, 1928, 1947, 1946
1502, 1928, 1929, 1948, 1947
1503, 1929, 1930, 1949, 1948
1504, 1930, 1931, 1950, 1949
1505, 1931, 1932, 1951, 1950
1506, 1932, 1933, 1952, 1951
1507, 1933, 1934, 1953, 1952
1508, 1934, 1935, 1954, 1953
1509, 1935, 1936, 1955, 1954
1510, 1936, 1937, 1956, 1955
1511, 1937, 1938, 1957, 1956
1512, 1938, 1939, 1958, 1957
1513, 1939, 1940, 1959, 1958
1514, 1940, 1941, 1960, 1959
1515, 1941, 1942, 1961, 1960
1516, 1942,  203,  204, 1961
1517, 234, 1943, 1962, 233
1518, 1943, 1944, 1963, 1962
1519, 1944, 1945, 1964, 1963
1520, 1945, 1946, 1965, 1964
1521, 1946, 1947, 1966, 1965
1522, 1947, 1948, 1967, 1966
1523, 1948, 1949, 1968, 1967
1524, 1949, 1950, 1969, 1968
1525, 1950, 1951, 1970, 1969
1526, 1951, 1952, 1971, 1970
1527, 1952, 1953, 1972, 1971
1528, 1953, 1954, 1973, 1972
1529, 1954, 1955, 1974, 1973
1530, 1955, 1956, 1975, 1974
1531, 1956, 1957, 1976, 1975
1532, 1957, 1958, 1977, 1976
1533, 1958, 1959, 1978, 1977
1534, 1959, 1960, 1979, 1978
1535, 1960, 1961, 1980, 1979
1536, 1961,  204,  205, 1980
1537, 233, 1962, 1981, 232
1538, 1962, 1963, 1982, 1981
1539, 1963, 1964, 1983, 1982
1540, 1964, 1965, 1984, 1983
1541, 1965, 1966, 1985, 1984
1542, 1966, 1967, 1986, 1985
1543, 1967, 1968, 1987, 1986
1544, 1968, 1969, 1988, 1987
1545, 1969, 1970, 1989, 1988
1546, 1970, 1971, 1990, 1989
1547, 1971, 1972, 1991, 1990
1548, 1972, 1973, 1992, 1991
1549, 1973, 1974, 1993, 1992
1550, 1974, 1975, 1994, 1993
1551, 1975, 1976, 1995, 1994
1552, 1976, 1977, 1996, 1995
1553, 1977, 1978, 1997, 1996
1554, 1978, 1979, 1998, 1997
1555, 1979, 1980, 1999, 1998
1556, 1980,  205,  206, 1999
1557, 232, 1981, 2000, 231
1558, 1981, 1982, 2001, 2000
1559, 1982, 1983, 2002, 2001
1560, 1983, 1984, 2003, 2002
1561, 1984, 1985, 2004, 2003
1562, 1985, 1986, 2005, 2004
1563, 1986, 1987, 2006, 2005
1564, 1987, 1988, 2007, 2006
1565, 1988, 1989, 2008, 2007
1566, 1989, 1990, 2009, 2008
1567, 1990, 1991, 2010, 2009
1568, 1991, 1992, 2011, 2010
1569, 1992, 1993, 2012, 2011
1570, 1993, 1994, 2013, 2012
1571, 1994, 1995, 2014, 2013
1572, 1995, 1996, 2015, 2014
1573, 1996, 1997, 2016, 2015
1574, 1997, 1998, 2017, 2016
1575, 1998, 1999, 2018, 2017
1576, 1999,  206,  207, 2018
1577, 231, 2000, 2019, 230
1578, 2000, 2001, 2020, 2019
1579, 2001, 2002, 2021, 2020
1580, 2002, 2003, 2022, 2021
1581, 2003, 2004, 2023, 2022
1582, 2004, 2005, 2024, 2023
1583, 2005, 2006, 2025, 2024
1584, 2006, 2007, 2026, 2025
1585, 2007, 2008, 2027, 2026
1586, 2008, 2009, 2028, 2027
1587, 2009, 2010, 2029, 2028
1588, 2010, 2011, 2030, 2029
1589, 2011, 2012, 2031, 2030
1590, 2012, 2013, 2032, 2031
1591, 2013, 2014, 2033, 2032
1592, 2014, 2015, 2034, 2033
1593, 2015, 2016, 2035, 2034
1594, 2016, 2017, 2036, 2035
1595, 2017, 2018, 2037, 2036
1596, 2018,  207,  208, 2037
1597, 230, 2019, 2038, 229
1598, 2019, 2020, 2039, 2038
1599, 2020, 2021, 2040, 2039
1600, 2021, 2022, 2041, 2040
1601, 2022, 2023, 2042, 2041
1602, 2023, 2024, 2043, 2042
1603, 2024, 2025, 2044, 2043
1604, 2025, 2026, 2045, 2044
1605, 2026, 2027, 2046, 2045
1606, 2027, 2028, 2047, 2046
1607, 2028, 2029, 2048, 2047
1608, 2029, 2030, 2049, 2048
1609, 2030, 2031, 2050, 2049
1610, 2031, 2032, 2051, 2050
1611, 2032, 2033, 2052, 2051
1612, 2033, 2034, 2053, 2052
1613, 2034, 2035, 2054, 2053
1614, 2035, 2036, 2055, 2054
1615, 2036, 2037, 2056, 2055
1616, 2037,  208,  209, 2056
1617, 229, 2038,  228, 13
1618, 2038, 2039,  227, 228
1619, 2039, 2040,  226, 227
1620, 2040, 2041,  225, 226
1621, 2041, 2042,  224, 225
1622, 2042, 2043,  223, 224
1623, 2043, 2044,  222, 223
1624, 2044, 2045,  221, 222
1625, 2045, 2046,  220, 221
1626, 2046, 2047,  219, 220
1627, 2047, 2048,  218, 219
1628, 2048, 2049,  217, 218
1629, 2049, 2050,  216, 217
1630, 2050, 2051,  215, 216
1631, 2051, 2052,  214, 215
1632, 2052, 2053,  213, 214
1633, 2053, 2054,  212, 213
1634, 2054, 2055,  211, 212
1635, 2055, 2056,  210, 211
1636, 2056,  209,   12, 210
1637, 270,  271, 2067, 2059
1638, 2060, 2064, 2068, 2058
1639, 279, 2069, 2066, 1
1640, 275, 2057, 2061, 274
1641, 276, 2071, 2057, 275
1642, 2070, 2062,  272, 273
1643, 2058,  268,  269, 2060
1644, 268, 2058,  281, 14
1645, 2060, 2059, 2075, 2064
1646, 2071,  276,   15, 277
1647, 277, 2065, 2057, 2071
1648, 280,  281, 2058, 2068
1649, 2060,  269,  270, 2059
1650, 2074, 2076, 2073, 2063
1651, 2066, 2069, 2063, 2065
1652, 2065,  277,  278, 2066
1653, 274, 2061, 2070, 273
1654, 2073, 2072, 2065, 2063
1655, 2067, 2062, 2076, 2074
1656, 2069, 2068, 2064, 2063
1657, 2057, 2065, 2072, 2061
1658, 2066,  278,    2, 1
1659, 2067,  271,  272, 2062
1660, 2068, 2069,  279, 280
1661, 2070, 2061, 2072, 2073
1662, 2062, 2070, 2073, 2076
1663, 2075, 2074, 2063, 2064
1664, 2067, 2074, 2075, 2059
1665, 282,  283, 2347, 2077
1666, 2389, 2282, 2289, 2212
1667, 2078,  286,  287, 2346
1668, 287,  288, 2079, 2346
1669, 2345, 2080,  289, 290
1670, 286, 2078, 2136, 285
1671, 2380, 2346, 2079, 2138
1672, 2080, 2079,  288, 289
1673, 2344, 2081, 2205, 2130
1674, 2139, 2343, 2082, 2204
1675, 294,  295, 2083, 2082
1676, 296,  297, 2084, 2141
1677, 2085, 2342,  298, 299
1678, 299,  300, 2341, 2085
1679, 2086, 2340,  301, 302
1680, 2087, 2339,  303, 304
1681, 304,  305, 2088, 2087
1682, 2089, 2146,  308, 309
1683, 2090, 2089,  309, 310
1684, 2091, 2090,  310, 311
1685, 2092, 2132,  312, 313
1686, 313,  314, 2093, 2092
1687, 2149, 2094,  316, 317
1688, 317,  318, 2095, 2149
1689, 2374, 2337, 2096, 2375
1690, 320,  321, 2336, 2096
1691, 2097, 2335,  322, 323
1692, 2098, 2334,  324, 325
1693, 2378, 2333, 2099, 2153
1694, 2412, 2332, 2100, 2154
1695, 2101, 2100,  329, 330
1696, 2101,  330,  331, 2134
1697, 2155, 2102,  332, 333
1698, 2103,  334,  335, 2156
1699, 2104,  336,  337, 2157
1700, 337,  338, 2105, 2157
1701, 2379, 2331, 2106, 2182
1702, 340,  341, 2330, 2106
1703, 2181, 2182, 2329, 2107
1704, 2108, 2328,  344, 345
1705, 345,  346, 2109, 2108
1706, 347,  348, 2110, 2161
1707, 349, 2327, 2110, 348
1708, 350,  351, 2326, 2111
1709, 2112, 2176, 2135, 2325
1710, 2113, 2162, 2370, 2324
1711, 355,  356, 2114, 2113
1712, 357,  358, 2115, 2163
1713, 2322, 2117, 2165, 2358
1714, 2126, 2128,  363, 364
1715, 2118, 2321,  365, 366
1716, 2126, 2321, 2129, 2211
1717, 369,  370, 2120, 2319
1718, 372,  373, 2317, 2121
1719, 2121, 2318,  371, 372
1720, 374,  375, 2170, 2122
1721, 2122, 2167, 2354, 2317
1722, 2123, 2170,  375, 376
1723, 377,  378, 2124, 2352
1724, 2315, 2125, 2316, 2173
1725, 2352, 2173, 2206, 2123
1726, 381, 2125,  380, 16
1727, 2357, 2320, 2119, 2166
1728, 359,  360, 2116, 2323
1729, 11,  170, 2307, 384
1730, 161,   3,  26, 2299
1731, 2138, 2209, 2137, 2380
1732, 2344, 2130, 2368, 2345
1733, 2131, 2367, 2341, 2340
1734, 311,  312, 2132, 2091
1735, 2336, 2335, 2376, 2133
1736, 2102, 2134,  331, 332
1737, 2326, 2325, 2135, 2371
1738, 363, 2128, 2117, 362
1739, 2127, 2348,  278, 277
1740, 15,  282, 2077, 2171
1741, 2127, 2171, 2212, 2289
1742, 2347,  283,  284, 2350
1743, 291,  292, 2081, 2344
1744, 285, 2136, 2350, 284
1745, 2368, 2207, 2138, 2079
1746, 293,  294, 2082, 2343
1747, 2083,  295,  296, 2141
1748, 2343, 2081,  292, 293
1749, 2081, 2343, 2139, 2205
1750, 2084,  297,  298, 2342
1751, 2082, 2083, 2140, 2204
1752, 2204, 2140, 2203, 2219
1753, 2217, 2205, 2218, 2265
1754, 2140, 2083, 2141, 2203
1755, 2142, 2202, 2084, 2342
1756, 2367, 2201, 2085, 2341
1757, 2088,  305,  306, 2338
1758, 2339, 2086,  302, 303
1759, 2086, 2339, 2143, 2366
1760, 2087, 2088, 2144, 2365
1761, 2365, 2199, 2366, 2143
1762, 2390, 2200, 2406, 2408
1763, 2338, 2145, 2364, 2198
1764, 2146, 2145,  307, 308
1765, 2093,  314,  315, 2148
1766, 2090, 2091, 2362, 2174
1767, 2091, 2132, 2361, 2362
1768, 2093, 2147, 2394, 2092
1769, 2095,  318,  319, 2337
1770, 319,  320, 2096, 2337
1771, 2195, 2148, 2194, 2225
1772, 2094, 2148,  315, 316
1773, 2195, 2225, 2404, 2224
1774, 2148, 2094, 2149, 2194
1775, 2149, 2095, 2150, 2193
1776, 2375, 2133, 2410, 2191
1777, 326,  327, 2099, 2333
1778, 2334, 2097,  323, 324
1779, 2097, 2334, 2377, 2151
1780, 328,  329, 2100, 2332
1781, 2333, 2098,  325, 326
1782, 2098, 2333, 2378, 2152
1783, 2189, 2230, 2229, 2411
1784, 2378, 2153, 2412, 2188
1785, 334, 2103, 2155, 333
1786, 2187, 2101, 2134, 2231
1787, 336, 2104, 2156, 335
1788, 2105,  338,  339, 2331
1789, 339,  340, 2106, 2331
1790, 2185, 2156, 2184, 2233
1791, 2232, 2185, 2233, 2383
1792, 342,  343, 2107, 2329
1793, 2156, 2104, 2157, 2184
1794, 2157, 2105, 2158, 2183
1795, 2106, 2330, 2329, 2182
1796, 2109,  346,  347, 2161
1797, 2328, 2107,  343, 344
1798, 2159, 2107, 2328, 2160
1799, 350, 2111, 2327, 349
1800, 2160, 2179, 2180, 2159
1801, 2237, 2418, 2402, 2180
1802, 352,  353, 2112, 2325
1803, 2110, 2327, 2111, 2372
1804, 354,  355, 2113, 2324
1805, 2371, 2177, 2111, 2326
1806, 2114,  356,  357, 2163
1807, 2324, 2112,  353, 354
1808, 358,  359, 2323, 2115
1809, 2369, 2114, 2163, 2360
1810, 360,  361, 2322, 2116
1811, 2241, 2162, 2369, 2392
1812, 361,  362, 2117, 2322
1813, 2370, 2176, 2112, 2324
1814, 364,  365, 2321, 2126
1815, 2359, 2164, 2242, 2175
1816, 2358, 2164, 2116, 2322
1817, 2165, 2117, 2128, 2210
1818, 366,  367, 2320, 2118
1819, 2210, 2128, 2126, 2211
1820, 367,  368, 2119, 2320
1821, 368,  369, 2319, 2119
1822, 370,  371, 2318, 2120
1823, 2215, 2166, 2172, 2246
1824, 2166, 2215, 2398, 2357
1825, 373,  374, 2122, 2317
1826, 2355, 2318, 2121, 2169
1827, 2122, 2170, 2353, 2167
1828, 376,  377, 2352, 2123
1829, 2123, 2206, 2353, 2170
1830, 378,  379, 2315, 2124
1831, 379,  380, 2125, 2315
1832, 2125,  381,  382, 2316
1833, 277,   15, 2171, 2127
1834, 2356, 2319, 2120, 2168
1835, 2168, 2172, 2166, 2356
1836, 2209, 2414, 2244, 2248
1837, 2202, 2203, 2141, 2084
1838, 2338, 2198, 2144, 2088
1839, 2194, 2149, 2193, 2226
1840, 2378, 2188, 2230, 2189
1841, 2184, 2157, 2183, 2234
1842, 2179, 2161, 2373, 2382
1843, 2078, 2351, 2350, 2136
1844, 2078, 2346, 2380, 2137
1845, 2384, 2130, 2205, 2217
1846, 2079, 2080, 2345, 2368
1847, 2205, 2139, 2204, 2218
1848, 2202, 2142, 2201, 2220
1849, 2367, 2131, 2200, 2390
1850, 2366, 2199, 2200, 2131
1851, 2145, 2338,  306, 307
1852, 2364, 2145, 2146, 2197
1853, 2363, 2197, 2146, 2089
1854, 2090, 2174, 2363, 2089
1855, 2428, 2147, 2195, 2427
1856, 2147, 2093, 2148, 2195
1857, 2193, 2150, 2192, 2227
1858, 2192, 2399, 2191, 2228
1859, 2095, 2337, 2374, 2150
1860, 2191, 2410, 2190, 2228
1861, 2376, 2190, 2410, 2133
1862, 2332, 2099,  327, 328
1863, 2187, 2188, 2412, 2154
1864, 2099, 2332, 2412, 2153
1865, 2231, 2134, 2186, 2258
1866, 2154, 2100, 2101, 2187
1867, 2186, 2155, 2185, 2232
1868, 2134, 2102, 2155, 2186
1869, 2155, 2103, 2156, 2185
1870, 2385, 2158, 2379, 2182
1871, 2105, 2331, 2379, 2158
1872, 2159, 2180, 2402, 2236
1873, 2181, 2107, 2159, 2236
1874, 2111, 2177, 2178, 2372
1875, 2391, 2392, 2369, 2360
1876, 2115, 2175, 2360, 2163
1877, 2242, 2164, 2358, 2216
1878, 2354, 2169, 2121, 2317
1879, 2169, 2387, 2168, 2355
1880, 2247, 2208, 2353, 2206
1881, 2353, 2208, 2387, 2167
1882, 2387, 2208, 2172, 2168
1883, 2173, 2352, 2124, 2315
1884, 2173, 2316, 2214, 2206
1885, 2209, 2248, 2213, 2137
1886, 2263, 2281, 2293, 2250
1887, 382,  383, 2214, 2316
1888, 2427, 2195, 2224, 2429
1889, 2429, 2224, 2264, 2395
1890, 2416, 2251, 2261, 2432
1891, 2358, 2165, 2210, 2216
1892, 2266, 2211, 2215, 2246
1893, 2382, 2237, 2180, 2179
1894, 2176, 2386, 2240, 2135
1895, 2386, 2176, 2241, 2243
1896, 2235, 2259, 2234, 2183
1897, 2373, 2372, 2178, 2396
1898, 2423, 2181, 2236, 2424
1899, 2423, 2385, 2182, 2181
1900, 2233, 2184, 2234, 2269
1901, 2258, 2186, 2232, 2383
1902, 2187, 2231, 2426, 2188
1903, 2400, 2401, 2270, 2226
1904, 2192, 2228, 2256, 2227
1905, 2411, 2151, 2377, 2189
1906, 2226, 2193, 2227, 2400
1907, 2376, 2151, 2411, 2190
1908, 2225, 2194, 2226, 2270
1909, 2150, 2374, 2399, 2192
1910, 2394, 2393, 2362, 2361
1911, 2222, 2397, 2223, 2254
1912, 2174, 2362, 2393, 2196
1913, 2220, 2390, 2408, 2252
1914, 2220, 2201, 2367, 2390
1915, 2388, 2202, 2220, 2252
1916, 2218, 2204, 2219, 2253
1917, 2085, 2201, 2142, 2342
1918, 2202, 2388, 2219, 2203
1919, 2247, 2206, 2214, 2349
1920, 2299, 2289, 2282, 2300
1921, 2351, 2212, 2171, 2077
1922, 2211, 2266, 2263, 2210
1923, 2212, 2351, 2213, 2389
1924, 2384, 2217, 2414, 2207
1925, 2249,  383,  384, 2307
1926, 2246, 2172, 2208, 2247
1927, 2263, 2250, 2216, 2210
1928, 2251, 2386, 2243, 2403
1929, 2265, 2218, 2253, 2279
1930, 2253, 2413, 2272, 2279
1931, 2200, 2199, 2221, 2406
1932, 2413, 2253, 2219, 2388
1933, 2198, 2222, 2221, 2199
1934, 2413, 2388, 2252, 2272
1935, 2397, 2364, 2197, 2223
1936, 2222, 2254, 2417, 2221
1937, 2174, 2245, 2197, 2363
1938, 2254, 2433, 2284, 2417
1939, 2255, 2224, 2404, 2405
1940, 2408, 2422, 2273, 2252
1941, 2264, 2280, 2292, 2284
1942, 2401, 2290, 2405, 2270
1943, 2420, 2400, 2227, 2256
1944, 2152, 2378, 2189, 2377
1945, 2229, 2257, 2256, 2228
1946, 2229, 2230, 2434, 2435
1947, 2257, 2268, 2277, 2421
1948, 2385, 2235, 2183, 2158
1949, 2269, 2278, 2383, 2233
1950, 2237, 2382, 2238, 2419
1951, 2177, 2239, 2396, 2178
1952, 2135, 2240, 2177, 2371
1953, 2162, 2241, 2176, 2370
1954, 2416, 2432, 2419, 2239
1955, 2239, 2177, 2240, 2416
1956, 2403, 2243, 2262, 2271
1957, 2250, 2262, 2242, 2216
1958, 2391, 2242, 2262, 2392
1959, 2391, 2360, 2175, 2242
1960, 2243, 2241, 2392, 2262
1961, 2217, 2265, 2244, 2414
1962, 2223, 2197, 2245, 2409
1963, 2245, 2174, 2196, 2395
1964, 2246, 2247, 2349, 2281
1965, 2214,  383, 2249, 2349
1966, 2249, 2283, 2281, 2349
1967, 2267, 2279, 2381, 2282
1968, 2407, 2389, 2213, 2248
1969, 2307, 2302, 2283, 2249
1970, 2293, 2294, 2286, 2271
1971, 2403, 2271, 2286, 2274
1972, 2386, 2251, 2416, 2240
1973, 2272, 2287, 2381, 2279
1974, 2395, 2264, 2409, 2245
1975, 2272, 2252, 2273, 2287
1976, 2280, 2264, 2224, 2255
1977, 2421, 2277, 2290, 2401
1978, 2278, 2268, 2258, 2383
1979, 2234, 2259, 2276, 2269
1980, 2269, 2415, 2291, 2278
1981, 2236, 2431, 2425, 2424
1982, 2431, 2236, 2402, 2430
1983, 2260, 2276, 2431, 2430
1984, 2432, 2261, 2260, 2418
1985, 2271, 2262, 2250, 2293
1986, 2254, 2223, 2409, 2433
1987, 2433, 2409, 2264, 2284
1988, 2267, 2244, 2265, 2279
1989, 2248, 2244, 2267, 2407
1990, 2298, 2305, 2296, 2278
1991, 2296, 2285, 2290, 2277
1992, 2285, 2255, 2405, 2290
1993, 2273, 2292, 2301, 2287
1994, 2313, 2295, 2286, 2294
1995, 2274, 2261, 2251, 2403
1996, 2417, 2284, 2422, 2408
1997, 2273, 2422, 2284, 2292
1998, 2275, 2261, 2274, 2288
1999, 2276, 2260, 2261, 2275
2000, 2415, 2269, 2276, 2275
2001, 2280, 2255, 2285, 2304
2002, 2298, 2278, 2291, 2303
2003, 2246, 2281, 2263, 2266
2004, 2300, 2282, 2381, 2312
2005, 2282, 2389, 2407, 2267
2006, 2313, 2302,  169, 168
2007, 2311, 2301, 2304, 2310
2008, 2274, 2286, 2295, 2288
2009, 2308, 2297, 2288, 2295
2010, 2415, 2275, 2288, 2297
2011, 2415, 2297, 2303, 2291
2012, 26,   25, 2289, 2299
2013, 161, 2299, 2300, 162
2014, 2314, 2310, 2304, 2305
2015, 2303, 2306, 2309, 2298
2016, 2268, 2278, 2296, 2277
2017, 2285, 2296, 2305, 2304
2018, 2301, 2292, 2280, 2304
2019, 2283, 2294, 2293, 2281
2020, 2294, 2283, 2302, 2313
2021, 2313,  168, 2308, 2295
2022, 167, 2306, 2308, 168
2023, 2381, 2287, 2301, 2311
2024, 170,  169, 2302, 2307
2025, 2306, 2303, 2297, 2308
2026, 2306,  167,  166, 2309
2027, 2310, 2314,  165, 164
2028, 2311,  163, 2312, 2381
2029, 2314, 2309,  166, 165
2030, 2305, 2298, 2309, 2314
2031, 2311, 2310,  164, 163
2032, 2312,  163,  162, 2300
2033, 2321, 2118, 2398, 2129
2034, 2359, 2323, 2116, 2164
2035, 351,  352, 2325, 2326
2036, 2108, 2109, 2160, 2328
2037, 341,  342, 2329, 2330
2038, 2377, 2334, 2098, 2152
2039, 321,  322, 2335, 2336
2040, 2376, 2335, 2097, 2151
2041, 2336, 2133, 2375, 2096
2042, 2339, 2087, 2365, 2143
2043, 300,  301, 2340, 2341
2044, 2340, 2086, 2366, 2131
2045, 290,  291, 2344, 2345
2046, 2,  278, 2348, 25
2047, 2127, 2289,   25, 2348
2048, 2077, 2347, 2350, 2351
2049, 2169, 2354, 2167, 2387
2050, 2355, 2168, 2120, 2318
2051, 2356, 2166, 2119, 2319
2052, 2118, 2320, 2357, 2398
2053, 2359, 2175, 2115, 2323
2054, 2132, 2092, 2394, 2361
2055, 2368, 2130, 2384, 2207
2056, 2369, 2162, 2113, 2114
2057, 2110, 2372, 2373, 2161
2058, 2375, 2191, 2399, 2374
2059, 2109, 2161, 2179, 2160
2060, 2137, 2213, 2351, 2078
2061, 2382, 2373, 2396, 2238
2062, 2365, 2144, 2198, 2199
2063, 2394, 2147, 2428, 2393
2064, 2429, 2395, 2196, 2427
2065, 2396, 2239, 2419, 2238
2066, 2397, 2222, 2198, 2364
2067, 2215, 2211, 2129, 2398
2068, 2421, 2420, 2256, 2257
2069, 2404, 2225, 2270, 2405
2070, 2406, 2221, 2417, 2408
2071, 2209, 2138, 2207, 2414
2072, 2418, 2237, 2419, 2432
2073, 2401, 2400, 2420, 2421
2074, 2235, 2385, 2423, 2424
2075, 2424, 2425, 2259, 2235
2076, 2230, 2188, 2426, 2434
2077, 2428, 2427, 2196, 2393
2078, 2431, 2276, 2259, 2425
2079, 2430, 2402, 2418, 2260
2080, 2426, 2231, 2258, 2434
2081, 2268, 2435, 2434, 2258
2082, 2435, 2268, 2257, 2229
2083, 2228, 2190, 2411, 2229
2084, 2441, 2442, 2437, 2436
2085, 2436, 2448,  397, 2441
2086, 18,  386, 2444, 385
2087, 2445, 2440,  388, 389
2088, 2442, 2438, 2447, 2437
2089, 2436,  395,  396, 2448
2090, 2441,  397,  398, 2444
2091, 394,  395, 2436, 2437
2092, 393, 2447, 2438, 392
2093, 392, 2438, 2446, 391
2094, 390, 2439, 2445, 389
2095, 2443, 2444,  386, 387
2096, 385, 2444,  398, 17
2097, 2448,  396,   20, 397
2098, 394, 2437, 2447, 393
2099, 2439,  390,  391, 2446
2100, 2440,  387,   19, 388
2101, 2444, 2443, 2442, 2441
2102, 2445, 2443,  387, 2440
2103, 2442, 2443, 2446, 2438
2104, 2445, 2439, 2446, 2443
2105, 19,  399, 2449, 388
2106, 399,  400, 2450, 2449
2107, 400,  401, 2451, 2450
2108, 401,  402, 2452, 2451
2109, 402,  403, 2453, 2452
2110, 403,  404, 2454, 2453
2111, 404,  405, 2455, 2454
2112, 405,  406, 2456, 2455
2113, 406,  407, 2457, 2456
2114, 407,  408, 2458, 2457
2115, 408,  409, 2459, 2458
2116, 409,  410, 2460, 2459
2117, 410,  411, 2461, 2460
2118, 411,  412, 2462, 2461
2119, 412,  413, 2463, 2462
2120, 413,  414, 2464, 2463
2121, 414,  415, 2465, 2464
2122, 415,  416, 2466, 2465
2123, 416,  417, 2467, 2466
2124, 417,  418, 2468, 2467
2125, 418,  419, 2469, 2468
2126, 419,  420, 2470, 2469
2127, 420,  421, 2471, 2470
2128, 421,  422, 2472, 2471
2129, 422,  423, 2473, 2472
2130, 423,  424, 2474, 2473
2131, 424,  425, 2475, 2474
2132, 425,  426, 2476, 2475
2133, 426,  427, 2477, 2476
2134, 427,  428, 2478, 2477
2135, 428,  429, 2479, 2478
2136, 429,  430, 2480, 2479
2137, 430,  431, 2481, 2480
2138, 431,  432, 2482, 2481
2139, 432,  433, 2483, 2482
2140, 433,  434, 2484, 2483
2141, 434,  435, 2485, 2484
2142, 435,  436, 2486, 2485
2143, 436,  437, 2487, 2486
2144, 437,  438, 2488, 2487
2145, 438,  439, 2489, 2488
2146, 439,  440, 2490, 2489
2147, 440,  441, 2491, 2490
2148, 441,  442, 2492, 2491
2149, 442,  443, 2493, 2492
2150, 443,  444, 2494, 2493
2151, 444,  445, 2495, 2494
2152, 445,  446, 2496, 2495
2153, 446,  447, 2497, 2496
2154, 447,  448, 2498, 2497
2155, 448,  449, 2499, 2498
2156, 449,  450, 2500, 2499
2157, 450,  451, 2501, 2500
2158, 451,  452, 2502, 2501
2159, 452,  453, 2503, 2502
2160, 453,  454, 2504, 2503
2161, 454,  455, 2505, 2504
2162, 455,  456, 2506, 2505
2163, 456,  457, 2507, 2506
2164, 457,  458, 2508, 2507
2165, 458,  459, 2509, 2508
2166, 459,  460, 2510, 2509
2167, 460,  461, 2511, 2510
2168, 461,  462, 2512, 2511
2169, 462,  463, 2513, 2512
2170, 463,  464, 2514, 2513
2171, 464,  465, 2515, 2514
2172, 465,  466, 2516, 2515
2173, 466,  467, 2517, 2516
2174, 467,  468, 2518, 2517
2175, 468,  469, 2519, 2518
2176, 469,  470, 2520, 2519
2177, 470,  471, 2521, 2520
2178, 471,  472, 2522, 2521
2179, 472,  473, 2523, 2522
2180, 473,  474, 2524, 2523
2181, 474,  475, 2525, 2524
2182, 475,  476, 2526, 2525
2183, 476,  477, 2527, 2526
2184, 477,  478, 2528, 2527
2185, 478,  479, 2529, 2528
2186, 479,  480, 2530, 2529
2187, 480,  481, 2531, 2530
2188, 481,  482, 2532, 2531
2189, 482,  483, 2533, 2532
2190, 483,  484, 2534, 2533
2191, 484,  485, 2535, 2534
2192, 485,  486, 2536, 2535
2193, 486,  487, 2537, 2536
2194, 487,  488, 2538, 2537
2195, 488,  489, 2539, 2538
2196, 489,  490, 2540, 2539
2197, 490,  491, 2541, 2540
2198, 491,  492, 2542, 2541
2199, 492,  493, 2543, 2542
2200, 493,  494, 2544, 2543
2201, 494,  495, 2545, 2544
2202, 495,  496, 2546, 2545
2203, 496,  497, 2547, 2546
2204, 497,  21, 498, 2547
2205, 388, 2449, 2548, 389
2206, 2449, 2450, 2549, 2548
2207, 2450, 2451, 2550, 2549
2208, 2451, 2452, 2551, 2550
2209, 2452, 2453, 2552, 2551
2210, 2453, 2454, 2553, 2552
2211, 2454, 2455, 2554, 2553
2212, 2455, 2456, 2555, 2554
2213, 2456, 2457, 2556, 2555
2214, 2457, 2458, 2557, 2556
2215, 2458, 2459, 2558, 2557
2216, 2459, 2460, 2559, 2558
2217, 2460, 2461, 2560, 2559
2218, 2461, 2462, 2561, 2560
2219, 2462, 2463, 2562, 2561
2220, 2463, 2464, 2563, 2562
2221, 2464, 2465, 2564, 2563
2222, 2465, 2466, 2565, 2564
2223, 2466, 2467, 2566, 2565
2224, 2467, 2468, 2567, 2566
2225, 2468, 2469, 2568, 2567
2226, 2469, 2470, 2569, 2568
2227, 2470, 2471, 2570, 2569
2228, 2471, 2472, 2571, 2570
2229, 2472, 2473, 2572, 2571
2230, 2473, 2474, 2573, 2572
2231, 2474, 2475, 2574, 2573
2232, 2475, 2476, 2575, 2574
2233, 2476, 2477, 2576, 2575
2234, 2477, 2478, 2577, 2576
2235, 2478, 2479, 2578, 2577
2236, 2479, 2480, 2579, 2578
2237, 2480, 2481, 2580, 2579
2238, 2481, 2482, 2581, 2580
2239, 2482, 2483, 2582, 2581
2240, 2483, 2484, 2583, 2582
2241, 2484, 2485, 2584, 2583
2242, 2485, 2486, 2585, 2584
2243, 2486, 2487, 2586, 2585
2244, 2487, 2488, 2587, 2586
2245, 2488, 2489, 2588, 2587
2246, 2489, 2490, 2589, 2588
2247, 2490, 2491, 2590, 2589
2248, 2491, 2492, 2591, 2590
2249, 2492, 2493, 2592, 2591
2250, 2493, 2494, 2593, 2592
2251, 2494, 2495, 2594, 2593
2252, 2495, 2496, 2595, 2594
2253, 2496, 2497, 2596, 2595
2254, 2497, 2498, 2597, 2596
2255, 2498, 2499, 2598, 2597
2256, 2499, 2500, 2599, 2598
2257, 2500, 2501, 2600, 2599
2258, 2501, 2502, 2601, 2600
2259, 2502, 2503, 2602, 2601
2260, 2503, 2504, 2603, 2602
2261, 2504, 2505, 2604, 2603
2262, 2505, 2506, 2605, 2604
2263, 2506, 2507, 2606, 2605
2264, 2507, 2508, 2607, 2606
2265, 2508, 2509, 2608, 2607
2266, 2509, 2510, 2609, 2608
2267, 2510, 2511, 2610, 2609
2268, 2511, 2512, 2611, 2610
2269, 2512, 2513, 2612, 2611
2270, 2513, 2514, 2613, 2612
2271, 2514, 2515, 2614, 2613
2272, 2515, 2516, 2615, 2614
2273, 2516, 2517, 2616, 2615
2274, 2517, 2518, 2617, 2616
2275, 2518, 2519, 2618, 2617
2276, 2519, 2520, 2619, 2618
2277, 2520, 2521, 2620, 2619
2278, 2521, 2522, 2621, 2620
2279, 2522, 2523, 2622, 2621
2280, 2523, 2524, 2623, 2622
2281, 2524, 2525, 2624, 2623
2282, 2525, 2526, 2625, 2624
2283, 2526, 2527, 2626, 2625
2284, 2527, 2528, 2627, 2626
2285, 2528, 2529, 2628, 2627
2286, 2529, 2530, 2629, 2628
2287, 2530, 2531, 2630, 2629
2288, 2531, 2532, 2631, 2630
2289, 2532, 2533, 2632, 2631
2290, 2533, 2534, 2633, 2632
2291, 2534, 2535, 2634, 2633
2292, 2535, 2536, 2635, 2634
2293, 2536, 2537, 2636, 2635
2294, 2537, 2538, 2637, 2636
2295, 2538, 2539, 2638, 2637
2296, 2539, 2540, 2639, 2638
2297, 2540, 2541, 2640, 2639
2298, 2541, 2542, 2641, 2640
2299, 2542, 2543, 2642, 2641
2300, 2543, 2544, 2643, 2642
2301, 2544, 2545, 2644, 2643
2302, 2545, 2546, 2645, 2644
2303, 2546, 2547, 2646, 2645
2304, 2547,  498,  499, 2646
2305, 389, 2548, 2647, 390
2306, 2548, 2549, 2648, 2647
2307, 2549, 2550, 2649, 2648
2308, 2550, 2551, 2650, 2649
2309, 2551, 2552, 2651, 2650
2310, 2552, 2553, 2652, 2651
2311, 2553, 2554, 2653, 2652
2312, 2554, 2555, 2654, 2653
2313, 2555, 2556, 2655, 2654
2314, 2556, 2557, 2656, 2655
2315, 2557, 2558, 2657, 2656
2316, 2558, 2559, 2658, 2657
2317, 2559, 2560, 2659, 2658
2318, 2560, 2561, 2660, 2659
2319, 2561, 2562, 2661, 2660
2320, 2562, 2563, 2662, 2661
2321, 2563, 2564, 2663, 2662
2322, 2564, 2565, 2664, 2663
2323, 2565, 2566, 2665, 2664
2324, 2566, 2567, 2666, 2665
2325, 2567, 2568, 2667, 2666
2326, 2568, 2569, 2668, 2667
2327, 2569, 2570, 2669, 2668
2328, 2570, 2571, 2670, 2669
2329, 2571, 2572, 2671, 2670
2330, 2572, 2573, 2672, 2671
2331, 2573, 2574, 2673, 2672
2332, 2574, 2575, 2674, 2673
2333, 2575, 2576, 2675, 2674
2334, 2576, 2577, 2676, 2675
2335, 2577, 2578, 2677, 2676
2336, 2578, 2579, 2678, 2677
2337, 2579, 2580, 2679, 2678
2338, 2580, 2581, 2680, 2679
2339, 2581, 2582, 2681, 2680
2340, 2582, 2583, 2682, 2681
2341, 2583, 2584, 2683, 2682
2342, 2584, 2585, 2684, 2683
2343, 2585, 2586, 2685, 2684
2344, 2586, 2587, 2686, 2685
2345, 2587, 2588, 2687, 2686
2346, 2588, 2589, 2688, 2687
2347, 2589, 2590, 2689, 2688
2348, 2590, 2591, 2690, 2689
2349, 2591, 2592, 2691, 2690
2350, 2592, 2593, 2692, 2691
2351, 2593, 2594, 2693, 2692
2352, 2594, 2595, 2694, 2693
2353, 2595, 2596, 2695, 2694
2354, 2596, 2597, 2696, 2695
2355, 2597, 2598, 2697, 2696
2356, 2598, 2599, 2698, 2697
2357, 2599, 2600, 2699, 2698
2358, 2600, 2601, 2700, 2699
2359, 2601, 2602, 2701, 2700
2360, 2602, 2603, 2702, 2701
2361, 2603, 2604, 2703, 2702
2362, 2604, 2605, 2704, 2703
2363, 2605, 2606, 2705, 2704
2364, 2606, 2607, 2706, 2705
2365, 2607, 2608, 2707, 2706
2366, 2608, 2609, 2708, 2707
2367, 2609, 2610, 2709, 2708
2368, 2610, 2611, 2710, 2709
2369, 2611, 2612, 2711, 2710
2370, 2612, 2613, 2712, 2711
2371, 2613, 2614, 2713, 2712
2372, 2614, 2615, 2714, 2713
2373, 2615, 2616, 2715, 2714
2374, 2616, 2617, 2716, 2715
2375, 2617, 2618, 2717, 2716
2376, 2618, 2619, 2718, 2717
2377, 2619, 2620, 2719, 2718
2378, 2620, 2621, 2720, 2719
2379, 2621, 2622, 2721, 2720
2380, 2622, 2623, 2722, 2721
2381, 2623, 2624, 2723, 2722
2382, 2624, 2625, 2724, 2723
2383, 2625, 2626, 2725, 2724
2384, 2626, 2627, 2726, 2725
2385, 2627, 2628, 2727, 2726
2386, 2628, 2629, 2728, 2727
2387, 2629, 2630, 2729, 2728
2388, 2630, 2631, 2730, 2729
2389, 2631, 2632, 2731, 2730
2390, 2632, 2633, 2732, 2731
2391, 2633, 2634, 2733, 2732
2392, 2634, 2635, 2734, 2733
2393, 2635, 2636, 2735, 2734
2394, 2636, 2637, 2736, 2735
2395, 2637, 2638, 2737, 2736
2396, 2638, 2639, 2738, 2737
2397, 2639, 2640, 2739, 2738
2398, 2640, 2641, 2740, 2739
2399, 2641, 2642, 2741, 2740
2400, 2642, 2643, 2742, 2741
2401, 2643, 2644, 2743, 2742
2402, 2644, 2645, 2744, 2743
2403, 2645, 2646, 2745, 2744
2404, 2646,  499,  500, 2745
2405, 390, 2647, 2746, 391
2406, 2647, 2648, 2747, 2746
2407, 2648, 2649, 2748, 2747
2408, 2649, 2650, 2749, 2748
2409, 2650, 2651, 2750, 2749
2410, 2651, 2652, 2751, 2750
2411, 2652, 2653, 2752, 2751
2412, 2653, 2654, 2753, 2752
2413, 2654, 2655, 2754, 2753
2414, 2655, 2656, 2755, 2754
2415, 2656, 2657, 2756, 2755
2416, 2657, 2658, 2757, 2756
2417, 2658, 2659, 2758, 2757
2418, 2659, 2660, 2759, 2758
2419, 2660, 2661, 2760, 2759
2420, 2661, 2662, 2761, 2760
2421, 2662, 2663, 2762, 2761
2422, 2663, 2664, 2763, 2762
2423, 2664, 2665, 2764, 2763
2424, 2665, 2666, 2765, 2764
2425, 2666, 2667, 2766, 2765
2426, 2667, 2668, 2767, 2766
2427, 2668, 2669, 2768, 2767
2428, 2669, 2670, 2769, 2768
2429, 2670, 2671, 2770, 2769
2430, 2671, 2672, 2771, 2770
2431, 2672, 2673, 2772, 2771
2432, 2673, 2674, 2773, 2772
2433, 2674, 2675, 2774, 2773
2434, 2675, 2676, 2775, 2774
2435, 2676, 2677, 2776, 2775
2436, 2677, 2678, 2777, 2776
2437, 2678, 2679, 2778, 2777
2438, 2679, 2680, 2779, 2778
2439, 2680, 2681, 2780, 2779
2440, 2681, 2682, 2781, 2780
2441, 2682, 2683, 2782, 2781
2442, 2683, 2684, 2783, 2782
2443, 2684, 2685, 2784, 2783
2444, 2685, 2686, 2785, 2784
2445, 2686, 2687, 2786, 2785
2446, 2687, 2688, 2787, 2786
2447, 2688, 2689, 2788, 2787
2448, 2689, 2690, 2789, 2788
2449, 2690, 2691, 2790, 2789
2450, 2691, 2692, 2791, 2790
2451, 2692, 2693, 2792, 2791
2452, 2693, 2694, 2793, 2792
2453, 2694, 2695, 2794, 2793
2454, 2695, 2696, 2795, 2794
2455, 2696, 2697, 2796, 2795
2456, 2697, 2698, 2797, 2796
2457, 2698, 2699, 2798, 2797
2458, 2699, 2700, 2799, 2798
2459, 2700, 2701, 2800, 2799
2460, 2701, 2702, 2801, 2800
2461, 2702, 2703, 2802, 2801
2462, 2703, 2704, 2803, 2802
2463, 2704, 2705, 2804, 2803
2464, 2705, 2706, 2805, 2804
2465, 2706, 2707, 2806, 2805
2466, 2707, 2708, 2807, 2806
2467, 2708, 2709, 2808, 2807
2468, 2709, 2710, 2809, 2808
2469, 2710, 2711, 2810, 2809
2470, 2711, 2712, 2811, 2810
2471, 2712, 2713, 2812, 2811
2472, 2713, 2714, 2813, 2812
2473, 2714, 2715, 2814, 2813
2474, 2715, 2716, 2815, 2814
2475, 2716, 2717, 2816, 2815
2476, 2717, 2718, 2817, 2816
2477, 2718, 2719, 2818, 2817
2478, 2719, 2720, 2819, 2818
2479, 2720, 2721, 2820, 2819
2480, 2721, 2722, 2821, 2820
2481, 2722, 2723, 2822, 2821
2482, 2723, 2724, 2823, 2822
2483, 2724, 2725, 2824, 2823
2484, 2725, 2726, 2825, 2824
2485, 2726, 2727, 2826, 2825
2486, 2727, 2728, 2827, 2826
2487, 2728, 2729, 2828, 2827
2488, 2729, 2730, 2829, 2828
2489, 2730, 2731, 2830, 2829
2490, 2731, 2732, 2831, 2830
2491, 2732, 2733, 2832, 2831
2492, 2733, 2734, 2833, 2832
2493, 2734, 2735, 2834, 2833
2494, 2735, 2736, 2835, 2834
2495, 2736, 2737, 2836, 2835
2496, 2737, 2738, 2837, 2836
2497, 2738, 2739, 2838, 2837
2498, 2739, 2740, 2839, 2838
2499, 2740, 2741, 2840, 2839
2500, 2741, 2742, 2841, 2840
2501, 2742, 2743, 2842, 2841
2502, 2743, 2744, 2843, 2842
2503, 2744, 2745, 2844, 2843
2504, 2745,  500,  501, 2844
2505, 391, 2746, 2845, 392
2506, 2746, 2747, 2846, 2845
2507, 2747, 2748, 2847, 2846
2508, 2748, 2749, 2848, 2847
2509, 2749, 2750, 2849, 2848
2510, 2750, 2751, 2850, 2849
2511, 2751, 2752, 2851, 2850
2512, 2752, 2753, 2852, 2851
2513, 2753, 2754, 2853, 2852
2514, 2754, 2755, 2854, 2853
2515, 2755, 2756, 2855, 2854
2516, 2756, 2757, 2856, 2855
2517, 2757, 2758, 2857, 2856
2518, 2758, 2759, 2858, 2857
2519, 2759, 2760, 2859, 2858
2520, 2760, 2761, 2860, 2859
2521, 2761, 2762, 2861, 2860
2522, 2762, 2763, 2862, 2861
2523, 2763, 2764, 2863, 2862
2524, 2764, 2765, 2864, 2863
2525, 2765, 2766, 2865, 2864
2526, 2766, 2767, 2866, 2865
2527, 2767, 2768, 2867, 2866
2528, 2768, 2769, 2868, 2867
2529, 2769, 2770, 2869, 2868
2530, 2770, 2771, 2870, 2869
2531, 2771, 2772, 2871, 2870
2532, 2772, 2773, 2872, 2871
2533, 2773, 2774, 2873, 2872
2534, 2774, 2775, 2874, 2873
2535, 2775, 2776, 2875, 2874
2536, 2776, 2777, 2876, 2875
2537, 2777, 2778, 2877, 2876
2538, 2778, 2779, 2878, 2877
2539, 2779, 2780, 2879, 2878
2540, 2780, 2781, 2880, 2879
2541, 2781, 2782, 2881, 2880
2542, 2782, 2783, 2882, 2881
2543, 2783, 2784, 2883, 2882
2544, 2784, 2785, 2884, 2883
2545, 2785, 2786, 2885, 2884
2546, 2786, 2787, 2886, 2885
2547, 2787, 2788, 2887, 2886
2548, 2788, 2789, 2888, 2887
2549, 2789, 2790, 2889, 2888
2550, 2790, 2791, 2890, 2889
2551, 2791, 2792, 2891, 2890
2552, 2792, 2793, 2892, 2891
2553, 2793, 2794, 2893, 2892
2554, 2794, 2795, 2894, 2893
2555, 2795, 2796, 2895, 2894
2556, 2796, 2797, 2896, 2895
2557, 2797, 2798, 2897, 2896
2558, 2798, 2799, 2898, 2897
2559, 2799, 2800, 2899, 2898
2560, 2800, 2801, 2900, 2899
2561, 2801, 2802, 2901, 2900
2562, 2802, 2803, 2902, 2901
2563, 2803, 2804, 2903, 2902
2564, 2804, 2805, 2904, 2903
2565, 2805, 2806, 2905, 2904
2566, 2806, 2807, 2906, 2905
2567, 2807, 2808, 2907, 2906
2568, 2808, 2809, 2908, 2907
2569, 2809, 2810, 2909, 2908
2570, 2810, 2811, 2910, 2909
2571, 2811, 2812, 2911, 2910
2572, 2812, 2813, 2912, 2911
2573, 2813, 2814, 2913, 2912
2574, 2814, 2815, 2914, 2913
2575, 2815, 2816, 2915, 2914
2576, 2816, 2817, 2916, 2915
2577, 2817, 2818, 2917, 2916
2578, 2818, 2819, 2918, 2917
2579, 2819, 2820, 2919, 2918
2580, 2820, 2821, 2920, 2919
2581, 2821, 2822, 2921, 2920
2582, 2822, 2823, 2922, 2921
2583, 2823, 2824, 2923, 2922
2584, 2824, 2825, 2924, 2923
2585, 2825, 2826, 2925, 2924
2586, 2826, 2827, 2926, 2925
2587, 2827, 2828, 2927, 2926
2588, 2828, 2829, 2928, 2927
2589, 2829, 2830, 2929, 2928
2590, 2830, 2831, 2930, 2929
2591, 2831, 2832, 2931, 2930
2592, 2832, 2833, 2932, 2931
2593, 2833, 2834, 2933, 2932
2594, 2834, 2835, 2934, 2933
2595, 2835, 2836, 2935, 2934
2596, 2836, 2837, 2936, 2935
2597, 2837, 2838, 2937, 2936
2598, 2838, 2839, 2938, 2937
2599, 2839, 2840, 2939, 2938
2600, 2840, 2841, 2940, 2939
2601, 2841, 2842, 2941, 2940
2602, 2842, 2843, 2942, 2941
2603, 2843, 2844, 2943, 2942
2604, 2844,  501,  502, 2943
2605, 392, 2845, 2944, 393
2606, 2845, 2846, 2945, 2944
2607, 2846, 2847, 2946, 2945
2608, 2847, 2848, 2947, 2946
2609, 2848, 2849, 2948, 2947
2610, 2849, 2850, 2949, 2948
2611, 2850, 2851, 2950, 2949
2612, 2851, 2852, 2951, 2950
2613, 2852, 2853, 2952, 2951
2614, 2853, 2854, 2953, 2952
2615, 2854, 2855, 2954, 2953
2616, 2855, 2856, 2955, 2954
2617, 2856, 2857, 2956, 2955
2618, 2857, 2858, 2957, 2956
2619, 2858, 2859, 2958, 2957
2620, 2859, 2860, 2959, 2958
2621, 2860, 2861, 2960, 2959
2622, 2861, 2862, 2961, 2960
2623, 2862, 2863, 2962, 2961
2624, 2863, 2864, 2963, 2962
2625, 2864, 2865, 2964, 2963
2626, 2865, 2866, 2965, 2964
2627, 2866, 2867, 2966, 2965
2628, 2867, 2868, 2967, 2966
2629, 2868, 2869, 2968, 2967
2630, 2869, 2870, 2969, 2968
2631, 2870, 2871, 2970, 2969
2632, 2871, 2872, 2971, 2970
2633, 2872, 2873, 2972, 2971
2634, 2873, 2874, 2973, 2972
2635, 2874, 2875, 2974, 2973
2636, 2875, 2876, 2975, 2974
2637, 2876, 2877, 2976, 2975
2638, 2877, 2878, 2977, 2976
2639, 2878, 2879, 2978, 2977
2640, 2879, 2880, 2979, 2978
2641, 2880, 2881, 2980, 2979
2642, 2881, 2882, 2981, 2980
2643, 2882, 2883, 2982, 2981
2644, 2883, 2884, 2983, 2982
2645, 2884, 2885, 2984, 2983
2646, 2885, 2886, 2985, 2984
2647, 2886, 2887, 2986, 2985
2648, 2887, 2888, 2987, 2986
2649, 2888, 2889, 2988, 2987
2650, 2889, 2890, 2989, 2988
2651, 2890, 2891, 2990, 2989
2652, 2891, 2892, 2991, 2990
2653, 2892, 2893, 2992, 2991
2654, 2893, 2894, 2993, 2992
2655, 2894, 2895, 2994, 2993
2656, 2895, 2896, 2995, 2994
2657, 2896, 2897, 2996, 2995
2658, 2897, 2898, 2997, 2996
2659, 2898, 2899, 2998, 2997
2660, 2899, 2900, 2999, 2998
2661, 2900, 2901, 3000, 2999
2662, 2901, 2902, 3001, 3000
2663, 2902, 2903, 3002, 3001
2664, 2903, 2904, 3003, 3002
2665, 2904, 2905, 3004, 3003
2666, 2905, 2906, 3005, 3004
2667, 2906, 2907, 3006, 3005
2668, 2907, 2908, 3007, 3006
2669, 2908, 2909, 3008, 3007
2670, 2909, 2910, 3009, 3008
2671, 2910, 2911, 3010, 3009
2672, 2911, 2912, 3011, 3010
2673, 2912, 2913, 3012, 3011
2674, 2913, 2914, 3013, 3012
2675, 2914, 2915, 3014, 3013
2676, 2915, 2916, 3015, 3014
2677, 2916, 2917, 3016, 3015
2678, 2917, 2918, 3017, 3016
2679, 2918, 2919, 3018, 3017
2680, 2919, 2920, 3019, 3018
2681, 2920, 2921, 3020, 3019
2682, 2921, 2922, 3021, 3020
2683, 2922, 2923, 3022, 3021
2684, 2923, 2924, 3023, 3022
2685, 2924, 2925, 3024, 3023
2686, 2925, 2926, 3025, 3024
2687, 2926, 2927, 3026, 3025
2688, 2927, 2928, 3027, 3026
2689, 2928, 2929, 3028, 3027
2690, 2929, 2930, 3029, 3028
2691, 2930, 2931, 3030, 3029
2692, 2931, 2932, 3031, 3030
2693, 2932, 2933, 3032, 3031
2694, 2933, 2934, 3033, 3032
2695, 2934, 2935, 3034, 3033
2696, 2935, 2936, 3035, 3034
2697, 2936, 2937, 3036, 3035
2698, 2937, 2938, 3037, 3036
2699, 2938, 2939, 3038, 3037
2700, 2939, 2940, 3039, 3038
2701, 2940, 2941, 3040, 3039
2702, 2941, 2942, 3041, 3040
2703, 2942, 2943, 3042, 3041
2704, 2943,  502,  503, 3042
2705, 393, 2944, 3043, 394
2706, 2944, 2945, 3044, 3043
2707, 2945, 2946, 3045, 3044
2708, 2946, 2947, 3046, 3045
2709, 2947, 2948, 3047, 3046
2710, 2948, 2949, 3048, 3047
2711, 2949, 2950, 3049, 3048
2712, 2950, 2951, 3050, 3049
2713, 2951, 2952, 3051, 3050
2714, 2952, 2953, 3052, 3051
2715, 2953, 2954, 3053, 3052
2716, 2954, 2955, 3054, 3053
2717, 2955, 2956, 3055, 3054
2718, 2956, 2957, 3056, 3055
2719, 2957, 2958, 3057, 3056
2720, 2958, 2959, 3058, 3057
2721, 2959, 2960, 3059, 3058
2722, 2960, 2961, 3060, 3059
2723, 2961, 2962, 3061, 3060
2724, 2962, 2963, 3062, 3061
2725, 2963, 2964, 3063, 3062
2726, 2964, 2965, 3064, 3063
2727, 2965, 2966, 3065, 3064
2728, 2966, 2967, 3066, 3065
2729, 2967, 2968, 3067, 3066
2730, 2968, 2969, 3068, 3067
2731, 2969, 2970, 3069, 3068
2732, 2970, 2971, 3070, 3069
2733, 2971, 2972, 3071, 3070
2734, 2972, 2973, 3072, 3071
2735, 2973, 2974, 3073, 3072
2736, 2974, 2975, 3074, 3073
2737, 2975, 2976, 3075, 3074
2738, 2976, 2977, 3076, 3075
2739, 2977, 2978, 3077, 3076
2740, 2978, 2979, 3078, 3077
2741, 2979, 2980, 3079, 3078
2742, 2980, 2981, 3080, 3079
2743, 2981, 2982, 3081, 3080
2744, 2982, 2983, 3082, 3081
2745, 2983, 2984, 3083, 3082
2746, 2984, 2985, 3084, 3083
2747, 2985, 2986, 3085, 3084
2748, 2986, 2987, 3086, 3085
2749, 2987, 2988, 3087, 3086
2750, 2988, 2989, 3088, 3087
2751, 2989, 2990, 3089, 3088
2752, 2990, 2991, 3090, 3089
2753, 2991, 2992, 3091, 3090
2754, 2992, 2993, 3092, 3091
2755, 2993, 2994, 3093, 3092
2756, 2994, 2995, 3094, 3093
2757, 2995, 2996, 3095, 3094
2758, 2996, 2997, 3096, 3095
2759, 2997, 2998, 3097, 3096
2760, 2998, 2999, 3098, 3097
2761, 2999, 3000, 3099, 3098
2762, 3000, 3001, 3100, 3099
2763, 3001, 3002, 3101, 3100
2764, 3002, 3003, 3102, 3101
2765, 3003, 3004, 3103, 3102
2766, 3004, 3005, 3104, 3103
2767, 3005, 3006, 3105, 3104
2768, 3006, 3007, 3106, 3105
2769, 3007, 3008, 3107, 3106
2770, 3008, 3009, 3108, 3107
2771, 3009, 3010, 3109, 3108
2772, 3010, 3011, 3110, 3109
2773, 3011, 3012, 3111, 3110
2774, 3012, 3013, 3112, 3111
2775, 3013, 3014, 3113, 3112
2776, 3014, 3015, 3114, 3113
2777, 3015, 3016, 3115, 3114
2778, 3016, 3017, 3116, 3115
2779, 3017, 3018, 3117, 3116
2780, 3018, 3019, 3118, 3117
2781, 3019, 3020, 3119, 3118
2782, 3020, 3021, 3120, 3119
2783, 3021, 3022, 3121, 3120
2784, 3022, 3023, 3122, 3121
2785, 3023, 3024, 3123, 3122
2786, 3024, 3025, 3124, 3123
2787, 3025, 3026, 3125, 3124
2788, 3026, 3027, 3126, 3125
2789, 3027, 3028, 3127, 3126
2790, 3028, 3029, 3128, 3127
2791, 3029, 3030, 3129, 3128
2792, 3030, 3031, 3130, 3129
2793, 3031, 3032, 3131, 3130
2794, 3032, 3033, 3132, 3131
2795, 3033, 3034, 3133, 3132
2796, 3034, 3035, 3134, 3133
2797, 3035, 3036, 3135, 3134
2798, 3036, 3037, 3136, 3135
2799, 3037, 3038, 3137, 3136
2800, 3038, 3039, 3138, 3137
2801, 3039, 3040, 3139, 3138
2802, 3040, 3041, 3140, 3139
2803, 3041, 3042, 3141, 3140
2804, 3042,  503,  504, 3141
2805, 394, 3043, 3142, 395
2806, 3043, 3044, 3143, 3142
2807, 3044, 3045, 3144, 3143
2808, 3045, 3046, 3145, 3144
2809, 3046, 3047, 3146, 3145
2810, 3047, 3048, 3147, 3146
2811, 3048, 3049, 3148, 3147
2812, 3049, 3050, 3149, 3148
2813, 3050, 3051, 3150, 3149
2814, 3051, 3052, 3151, 3150
2815, 3052, 3053, 3152, 3151
2816, 3053, 3054, 3153, 3152
2817, 3054, 3055, 3154, 3153
2818, 3055, 3056, 3155, 3154
2819, 3056, 3057, 3156, 3155
2820, 3057, 3058, 3157, 3156
2821, 3058, 3059, 3158, 3157
2822, 3059, 3060, 3159, 3158
2823, 3060, 3061, 3160, 3159
2824, 3061, 3062, 3161, 3160
2825, 3062, 3063, 3162, 3161
2826, 3063, 3064, 3163, 3162
2827, 3064, 3065, 3164, 3163
2828, 3065, 3066, 3165, 3164
2829, 3066, 3067, 3166, 3165
2830, 3067, 3068, 3167, 3166
2831, 3068, 3069, 3168, 3167
2832, 3069, 3070, 3169, 3168
2833, 3070, 3071, 3170, 3169
2834, 3071, 3072, 3171, 3170
2835, 3072, 3073, 3172, 3171
2836, 3073, 3074, 3173, 3172
2837, 3074, 3075, 3174, 3173
2838, 3075, 3076, 3175, 3174
2839, 3076, 3077, 3176, 3175
2840, 3077, 3078, 3177, 3176
2841, 3078, 3079, 3178, 3177
2842, 3079, 3080, 3179, 3178
2843, 3080, 3081, 3180, 3179
2844, 3081, 3082, 3181, 3180
2845, 3082, 3083, 3182, 3181
2846, 3083, 3084, 3183, 3182
2847, 3084, 3085, 3184, 3183
2848, 3085, 3086, 3185, 3184
2849, 3086, 3087, 3186, 3185
2850, 3087, 3088, 3187, 3186
2851, 3088, 3089, 3188, 3187
2852, 3089, 3090, 3189, 3188
2853, 3090, 3091, 3190, 3189
2854, 3091, 3092, 3191, 3190
2855, 3092, 3093, 3192, 3191
2856, 3093, 3094, 3193, 3192
2857, 3094, 3095, 3194, 3193
2858, 3095, 3096, 3195, 3194
2859, 3096, 3097, 3196, 3195
2860, 3097, 3098, 3197, 3196
2861, 3098, 3099, 3198, 3197
2862, 3099, 3100, 3199, 3198
2863, 3100, 3101, 3200, 3199
2864, 3101, 3102, 3201, 3200
2865, 3102, 3103, 3202, 3201
2866, 3103, 3104, 3203, 3202
2867, 3104, 3105, 3204, 3203
2868, 3105, 3106, 3205, 3204
2869, 3106, 3107, 3206, 3205
2870, 3107, 3108, 3207, 3206
2871, 3108, 3109, 3208, 3207
2872, 3109, 3110, 3209, 3208
2873, 3110, 3111, 3210, 3209
2874, 3111, 3112, 3211, 3210
2875, 3112, 3113, 3212, 3211
2876, 3113, 3114, 3213, 3212
2877, 3114, 3115, 3214, 3213
2878, 3115, 3116, 3215, 3214
2879, 3116, 3117, 3216, 3215
2880, 3117, 3118, 3217, 3216
2881, 3118, 3119, 3218, 3217
2882, 3119, 3120, 3219, 3218
2883, 3120, 3121, 3220, 3219
2884, 3121, 3122, 3221, 3220
2885, 3122, 3123, 3222, 3221
2886, 3123, 3124, 3223, 3222
2887, 3124, 3125, 3224, 3223
2888, 3125, 3126, 3225, 3224
2889, 3126, 3127, 3226, 3225
2890, 3127, 3128, 3227, 3226
2891, 3128, 3129, 3228, 3227
2892, 3129, 3130, 3229, 3228
2893, 3130, 3131, 3230, 3229
2894, 3131, 3132, 3231, 3230
2895, 3132, 3133, 3232, 3231
2896, 3133, 3134, 3233, 3232
2897, 3134, 3135, 3234, 3233
2898, 3135, 3136, 3235, 3234
2899, 3136, 3137, 3236, 3235
2900, 3137, 3138, 3237, 3236
2901, 3138, 3139, 3238, 3237
2902, 3139, 3140, 3239, 3238
2903, 3140, 3141, 3240, 3239
2904, 3141,  504,   22, 3240
2905, 395, 3142, 3241, 396
2906, 3142, 3143, 3242, 3241
2907, 3143, 3144, 3243, 3242
2908, 3144, 3145, 3244, 3243
2909, 3145, 3146, 3245, 3244
2910, 3146, 3147, 3246, 3245
2911, 3147, 3148, 3247, 3246
2912, 3148, 3149, 3248, 3247
2913, 3149, 3150, 3249, 3248
2914, 3150, 3151, 3250, 3249
2915, 3151, 3152, 3251, 3250
2916, 3152, 3153, 3252, 3251
2917, 3153, 3154, 3253, 3252
2918, 3154, 3155, 3254, 3253
2919, 3155, 3156, 3255, 3254
2920, 3156, 3157, 3256, 3255
2921, 3157, 3158, 3257, 3256
2922, 3158, 3159, 3258, 3257
2923, 3159, 3160, 3259, 3258
2924, 3160, 3161, 3260, 3259
2925, 3161, 3162, 3261, 3260
2926, 3162, 3163, 3262, 3261
2927, 3163, 3164, 3263, 3262
2928, 3164, 3165, 3264, 3263
2929, 3165, 3166, 3265, 3264
2930, 3166, 3167, 3266, 3265
2931, 3167, 3168, 3267, 3266
2932, 3168, 3169, 3268, 3267
2933, 3169, 3170, 3269, 3268
2934, 3170, 3171, 3270, 3269
2935, 3171, 3172, 3271, 3270
2936, 3172, 3173, 3272, 3271
2937, 3173, 3174, 3273, 3272
2938, 3174, 3175, 3274, 3273
2939, 3175, 3176, 3275, 3274
2940, 3176, 3177, 3276, 3275
2941, 3177, 3178, 3277, 3276
2942, 3178, 3179, 3278, 3277
2943, 3179, 3180, 3279, 3278
2944, 3180, 3181, 3280, 3279
2945, 3181, 3182, 3281, 3280
2946, 3182, 3183, 3282, 3281
2947, 3183, 3184, 3283, 3282
2948, 3184, 3185, 3284, 3283
2949, 3185, 3186, 3285, 3284
2950, 3186, 3187, 3286, 3285
2951, 3187, 3188, 3287, 3286
2952, 3188, 3189, 3288, 3287
2953, 3189, 3190, 3289, 3288
2954, 3190, 3191, 3290, 3289
2955, 3191, 3192, 3291, 3290
2956, 3192, 3193, 3292, 3291
2957, 3193, 3194, 3293, 3292
2958, 3194, 3195, 3294, 3293
2959, 3195, 3196, 3295, 3294
2960, 3196, 3197, 3296, 3295
2961, 3197, 3198, 3297, 3296
2962, 3198, 3199, 3298, 3297
2963, 3199, 3200, 3299, 3298
2964, 3200, 3201, 3300, 3299
2965, 3201, 3202, 3301, 3300
2966, 3202, 3203, 3302, 3301
2967, 3203, 3204, 3303, 3302
2968, 3204, 3205, 3304, 3303
2969, 3205, 3206, 3305, 3304
2970, 3206, 3207, 3306, 3305
2971, 3207, 3208, 3307, 3306
2972, 3208, 3209, 3308, 3307
2973, 3209, 3210, 3309, 3308
2974, 3210, 3211, 3310, 3309
2975, 3211, 3212, 3311, 3310
2976, 3212, 3213, 3312, 3311
2977, 3213, 3214, 3313, 3312
2978, 3214, 3215, 3314, 3313
2979, 3215, 3216, 3315, 3314
2980, 3216, 3217, 3316, 3315
2981, 3217, 3218, 3317, 3316
2982, 3218, 3219, 3318, 3317
2983, 3219, 3220, 3319, 3318
2984, 3220, 3221, 3320, 3319
2985, 3221, 3222, 3321, 3320
2986, 3222, 3223, 3322, 3321
2987, 3223, 3224, 3323, 3322
2988, 3224, 3225, 3324, 3323
2989, 3225, 3226, 3325, 3324
2990, 3226, 3227, 3326, 3325
2991, 3227, 3228, 3327, 3326
2992, 3228, 3229, 3328, 3327
2993, 3229, 3230, 3329, 3328
2994, 3230, 3231, 3330, 3329
2995, 3231, 3232, 3331, 3330
2996, 3232, 3233, 3332, 3331
2997, 3233, 3234, 3333, 3332
2998, 3234, 3235, 3334, 3333
2999, 3235, 3236, 3335, 3334
3000, 3236, 3237, 3336, 3335
3001, 3237, 3238, 3337, 3336
3002, 3238, 3239, 3338, 3337
3003, 3239, 3240, 3339, 3338
3004, 3240,   22,  505, 3339
3005, 396, 3241, 3340, 20
3006, 3241, 3242, 3341, 3340
3007, 3242, 3243, 3342, 3341
3008, 3243, 3244, 3343, 3342
3009, 3244, 3245, 3344, 3343
3010, 3245, 3246, 3345, 3344
3011, 3246, 3247, 3346, 3345
3012, 3247, 3248, 3347, 3346
3013, 3248, 3249, 3348, 3347
3014, 3249, 3250, 3349, 3348
3015, 3250, 3251, 3350, 3349
3016, 3251, 3252, 3351, 3350
3017, 3252, 3253, 3352, 3351
3018, 3253, 3254, 3353, 3352
3019, 3254, 3255, 3354, 3353
3020, 3255, 3256, 3355, 3354
3021, 3256, 3257, 3356, 3355
3022, 3257, 3258, 3357, 3356
3023, 3258, 3259, 3358, 3357
3024, 3259, 3260, 3359, 3358
3025, 3260, 3261, 3360, 3359
3026, 3261, 3262, 3361, 3360
3027, 3262, 3263, 3362, 3361
3028, 3263, 3264, 3363, 3362
3029, 3264, 3265, 3364, 3363
3030, 3265, 3266, 3365, 3364
3031, 3266, 3267, 3366, 3365
3032, 3267, 3268, 3367, 3366
3033, 3268, 3269, 3368, 3367
3034, 3269, 3270, 3369, 3368
3035, 3270, 3271, 3370, 3369
3036, 3271, 3272, 3371, 3370
3037, 3272, 3273, 3372, 3371
3038, 3273, 3274, 3373, 3372
3039, 3274, 3275, 3374, 3373
3040, 3275, 3276, 3375, 3374
3041, 3276, 3277, 3376, 3375
3042, 3277, 3278, 3377, 3376
3043, 3278, 3279, 3378, 3377
3044, 3279, 3280, 3379, 3378
3045, 3280, 3281, 3380, 3379
3046, 3281, 3282, 3381, 3380
3047, 3282, 3283, 3382, 3381
3048, 3283, 3284, 3383, 3382
3049, 3284, 3285, 3384, 3383
3050, 3285, 3286, 3385, 3384
3051, 3286, 3287, 3386, 3385
3052, 3287, 3288, 3387, 3386
3053, 3288, 3289, 3388, 3387
3054, 3289, 3290, 3389, 3388
3055, 3290, 3291, 3390, 3389
3056, 3291, 3292, 3391, 3390
3057, 3292, 3293, 3392, 3391
3058, 3293, 3294, 3393, 3392
3059, 3294, 3295, 3394, 3393
3060, 3295, 3296, 3395, 3394
3061, 3296, 3297, 3396, 3395
3062, 3297, 3298, 3397, 3396
3063, 3298, 3299, 3398, 3397
3064, 3299, 3300, 3399, 3398
3065, 3300, 3301, 3400, 3399
3066, 3301, 3302, 3401, 3400
3067, 3302, 3303, 3402, 3401
3068, 3303, 3304, 3403, 3402
3069, 3304, 3305, 3404, 3403
3070, 3305, 3306, 3405, 3404
3071, 3306, 3307, 3406, 3405
3072, 3307, 3308, 3407, 3406
3073, 3308, 3309, 3408, 3407
3074, 3309, 3310, 3409, 3408
3075, 3310, 3311, 3410, 3409
3076, 3311, 3312, 3411, 3410
3077, 3312, 3313, 3412, 3411
3078, 3313, 3314, 3413, 3412
3079, 3314, 3315, 3414, 3413
3080, 3315, 3316, 3415, 3414
3081, 3316, 3317, 3416, 3415
3082, 3317, 3318, 3417, 3416
3083, 3318, 3319, 3418, 3417
3084, 3319, 3320, 3419, 3418
3085, 3320, 3321, 3420, 3419
3086, 3321, 3322, 3421, 3420
3087, 3322, 3323, 3422, 3421
3088, 3323, 3324, 3423, 3422
3089, 3324, 3325, 3424, 3423
3090, 3325, 3326, 3425, 3424
3091, 3326, 3327, 3426, 3425
3092, 3327, 3328, 3427, 3426
3093, 3328, 3329, 3428, 3427
3094, 3329, 3330, 3429, 3428
3095, 3330, 3331, 3430, 3429
3096, 3331, 3332, 3431, 3430
3097, 3332, 3333, 3432, 3431
3098, 3333, 3334, 3433, 3432
3099, 3334, 3335, 3434, 3433
3100, 3335, 3336, 3435, 3434
3101, 3336, 3337, 3436, 3435
3102, 3337, 3338, 3437, 3436
3103, 3338, 3339, 3438, 3437
3104, 3339,  505,  506, 3438
3105, 20, 3340, 3439, 533
3106, 3340, 3341, 3440, 3439
3107, 3341, 3342, 3441, 3440
3108, 3342, 3343, 3442, 3441
3109, 3343, 3344, 3443, 3442
3110, 3344, 3345, 3444, 3443
3111, 3345, 3346, 3445, 3444
3112, 3346, 3347, 3446, 3445
3113, 3347, 3348, 3447, 3446
3114, 3348, 3349, 3448, 3447
3115, 3349, 3350, 3449, 3448
3116, 3350, 3351, 3450, 3449
3117, 3351, 3352, 3451, 3450
3118, 3352, 3353, 3452, 3451
3119, 3353, 3354, 3453, 3452
3120, 3354, 3355, 3454, 3453
3121, 3355, 3356, 3455, 3454
3122, 3356, 3357, 3456, 3455
3123, 3357, 3358, 3457, 3456
3124, 3358, 3359, 3458, 3457
3125, 3359, 3360, 3459, 3458
3126, 3360, 3361, 3460, 3459
3127, 3361, 3362, 3461, 3460
3128, 3362, 3363, 3462, 3461
3129, 3363, 3364, 3463, 3462
3130, 3364, 3365, 3464, 3463
3131, 3365, 3366, 3465, 3464
3132, 3366, 3367, 3466, 3465
3133, 3367, 3368, 3467, 3466
3134, 3368, 3369, 3468, 3467
3135, 3369, 3370, 3469, 3468
3136, 3370, 3371, 3470, 3469
3137, 3371, 3372, 3471, 3470
3138, 3372, 3373, 3472, 3471
3139, 3373, 3374, 3473, 3472
3140, 3374, 3375, 3474, 3473
3141, 3375, 3376, 3475, 3474
3142, 3376, 3377, 3476, 3475
3143, 3377, 3378, 3477, 3476
3144, 3378, 3379, 3478, 3477
3145, 3379, 3380, 3479, 3478
3146, 3380, 3381, 3480, 3479
3147, 3381, 3382, 3481, 3480
3148, 3382, 3383, 3482, 3481
3149, 3383, 3384, 3483, 3482
3150, 3384, 3385, 3484, 3483
3151, 3385, 3386, 3485, 3484
3152, 3386, 3387, 3486, 3485
3153, 3387, 3388, 3487, 3486
3154, 3388, 3389, 3488, 3487
3155, 3389, 3390, 3489, 3488
3156, 3390, 3391, 3490, 3489
3157, 3391, 3392, 3491, 3490
3158, 3392, 3393, 3492, 3491
3159, 3393, 3394, 3493, 3492
3160, 3394, 3395, 3494, 3493
3161, 3395, 3396, 3495, 3494
3162, 3396, 3397, 3496, 3495
3163, 3397, 3398, 3497, 3496
3164, 3398, 3399, 3498, 3497
3165, 3399, 3400, 3499, 3498
3166, 3400, 3401, 3500, 3499
3167, 3401, 3402, 3501, 3500
3168, 3402, 3403, 3502, 3501
3169, 3403, 3404, 3503, 3502
3170, 3404, 3405, 3504, 3503
3171, 3405, 3406, 3505, 3504
3172, 3406, 3407, 3506, 3505
3173, 3407, 3408, 3507, 3506
3174, 3408, 3409, 3508, 3507
3175, 3409, 3410, 3509, 3508
3176, 3410, 3411, 3510, 3509
3177, 3411, 3412, 3511, 3510
3178, 3412, 3413, 3512, 3511
3179, 3413, 3414, 3513, 3512
3180, 3414, 3415, 3514, 3513
3181, 3415, 3416, 3515, 3514
3182, 3416, 3417, 3516, 3515
3183, 3417, 3418, 3517, 3516
3184, 3418, 3419, 3518, 3517
3185, 3419, 3420, 3519, 3518
3186, 3420, 3421, 3520, 3519
3187, 3421, 3422, 3521, 3520
3188, 3422, 3423, 3522, 3521
3189, 3423, 3424, 3523, 3522
3190, 3424, 3425, 3524, 3523
3191, 3425, 3426, 3525, 3524
3192, 3426, 3427, 3526, 3525
3193, 3427, 3428, 3527, 3526
3194, 3428, 3429, 3528, 3527
3195, 3429, 3430, 3529, 3528
3196, 3430, 3431, 3530, 3529
3197, 3431, 3432, 3531, 3530
3198, 3432, 3433, 3532, 3531
3199, 3433, 3434, 3533, 3532
3200, 3434, 3435, 3534, 3533
3201, 3435, 3436, 3535, 3534
3202, 3436, 3437, 3536, 3535
3203, 3437, 3438, 3537, 3536
3204, 3438,  506,  507, 3537
3205, 533, 3439, 3538, 532
3206, 3439, 3440, 3539, 3538
3207, 3440, 3441, 3540, 3539
3208, 3441, 3442, 3541, 3540
3209, 3442, 3443, 3542, 3541
3210, 3443, 3444, 3543, 3542
3211, 3444, 3445, 3544, 3543
3212, 3445, 3446, 3545, 3544
3213, 3446, 3447, 3546, 3545
3214, 3447, 3448, 3547, 3546
3215, 3448, 3449, 3548, 3547
3216, 3449, 3450, 3549, 3548
3217, 3450, 3451, 3550, 3549
3218, 3451, 3452, 3551, 3550
3219, 3452, 3453, 3552, 3551
3220, 3453, 3454, 3553, 3552
3221, 3454, 3455, 3554, 3553
3222, 3455, 3456, 3555, 3554
3223, 3456, 3457, 3556, 3555
3224, 3457, 3458, 3557, 3556
3225, 3458, 3459, 3558, 3557
3226, 3459, 3460, 3559, 3558
3227, 3460, 3461, 3560, 3559
3228, 3461, 3462, 3561, 3560
3229, 3462, 3463, 3562, 3561
3230, 3463, 3464, 3563, 3562
3231, 3464, 3465, 3564, 3563
3232, 3465, 3466, 3565, 3564
3233, 3466, 3467, 3566, 3565
3234, 3467, 3468, 3567, 3566
3235, 3468, 3469, 3568, 3567
3236, 3469, 3470, 3569, 3568
3237, 3470, 3471, 3570, 3569
3238, 3471, 3472, 3571, 3570
3239, 3472, 3473, 3572, 3571
3240, 3473, 3474, 3573, 3572
3241, 3474, 3475, 3574, 3573
3242, 3475, 3476, 3575, 3574
3243, 3476, 3477, 3576, 3575
3244, 3477, 3478, 3577, 3576
3245, 3478, 3479, 3578, 3577
3246, 3479, 3480, 3579, 3578
3247, 3480, 3481, 3580, 3579
3248, 3481, 3482, 3581, 3580
3249, 3482, 3483, 3582, 3581
3250, 3483, 3484, 3583, 3582
3251, 3484, 3485, 3584, 3583
3252, 3485, 3486, 3585, 3584
3253, 3486, 3487, 3586, 3585
3254, 3487, 3488, 3587, 3586
3255, 3488, 3489, 3588, 3587
3256, 3489, 3490, 3589, 3588
3257, 3490, 3491, 3590, 3589
3258, 3491, 3492, 3591, 3590
3259, 3492, 3493, 3592, 3591
3260, 3493, 3494, 3593, 3592
3261, 3494, 3495, 3594, 3593
3262, 3495, 3496, 3595, 3594
3263, 3496, 3497, 3596, 3595
3264, 3497, 3498, 3597, 3596
3265, 3498, 3499, 3598, 3597
3266, 3499, 3500, 3599, 3598
3267, 3500, 3501, 3600, 3599
3268, 3501, 3502, 3601, 3600
3269, 3502, 3503, 3602, 3601
3270, 3503, 3504, 3603, 3602
3271, 3504, 3505, 3604, 3603
3272, 3505, 3506, 3605, 3604
3273, 3506, 3507, 3606, 3605
3274, 3507, 3508, 3607, 3606
3275, 3508, 3509, 3608, 3607
3276, 3509, 3510, 3609, 3608
3277, 3510, 3511, 3610, 3609
3278, 3511, 3512, 3611, 3610
3279, 3512, 3513, 3612, 3611
3280, 3513, 3514, 3613, 3612
3281, 3514, 3515, 3614, 3613
3282, 3515, 3516, 3615, 3614
3283, 3516, 3517, 3616, 3615
3284, 3517, 3518, 3617, 3616
3285, 3518, 3519, 3618, 3617
3286, 3519, 3520, 3619, 3618
3287, 3520, 3521, 3620, 3619
3288, 3521, 3522, 3621, 3620
3289, 3522, 3523, 3622, 3621
3290, 3523, 3524, 3623, 3622
3291, 3524, 3525, 3624, 3623
3292, 3525, 3526, 3625, 3624
3293, 3526, 3527, 3626, 3625
3294, 3527, 3528, 3627, 3626
3295, 3528, 3529, 3628, 3627
3296, 3529, 3530, 3629, 3628
3297, 3530, 3531, 3630, 3629
3298, 3531, 3532, 3631, 3630
3299, 3532, 3533, 3632, 3631
3300, 3533, 3534, 3633, 3632
3301, 3534, 3535, 3634, 3633
3302, 3535, 3536, 3635, 3634
3303, 3536, 3537, 3636, 3635
3304, 3537,  507,  508, 3636
3305, 532, 3538, 3637, 531
3306, 3538, 3539, 3638, 3637
3307, 3539, 3540, 3639, 3638
3308, 3540, 3541, 3640, 3639
3309, 3541, 3542, 3641, 3640
3310, 3542, 3543, 3642, 3641
3311, 3543, 3544, 3643, 3642
3312, 3544, 3545, 3644, 3643
3313, 3545, 3546, 3645, 3644
3314, 3546, 3547, 3646, 3645
3315, 3547, 3548, 3647, 3646
3316, 3548, 3549, 3648, 3647
3317, 3549, 3550, 3649, 3648
3318, 3550, 3551, 3650, 3649
3319, 3551, 3552, 3651, 3650
3320, 3552, 3553, 3652, 3651
3321, 3553, 3554, 3653, 3652
3322, 3554, 3555, 3654, 3653
3323, 3555, 3556, 3655, 3654
3324, 3556, 3557, 3656, 3655
3325, 3557, 3558, 3657, 3656
3326, 3558, 3559, 3658, 3657
3327, 3559, 3560, 3659, 3658
3328, 3560, 3561, 3660, 3659
3329, 3561, 3562, 3661, 3660
3330, 3562, 3563, 3662, 3661
3331, 3563, 3564, 3663, 3662
3332, 3564, 3565, 3664, 3663
3333, 3565, 3566, 3665, 3664
3334, 3566, 3567, 3666, 3665
3335, 3567, 3568, 3667, 3666
3336, 3568, 3569, 3668, 3667
3337, 3569, 3570, 3669, 3668
3338, 3570, 3571, 3670, 3669
3339, 3571, 3572, 3671, 3670
3340, 3572, 3573, 3672, 3671
3341, 3573, 3574, 3673, 3672
3342, 3574, 3575, 3674, 3673
3343, 3575, 3576, 3675, 3674
3344, 3576, 3577, 3676, 3675
3345, 3577, 3578, 3677, 3676
3346, 3578, 3579, 3678, 3677
3347, 3579, 3580, 3679, 3678
3348, 3580, 3581, 3680, 3679
3349, 3581, 3582, 3681, 3680
3350, 3582, 3583, 3682, 3681
3351, 3583, 3584, 3683, 3682
3352, 3584, 3585, 3684, 3683
3353, 3585, 3586, 3685, 3684
3354, 3586, 3587, 3686, 3685
3355, 3587, 3588, 3687, 3686
3356, 3588, 3589, 3688, 3687
3357, 3589, 3590, 3689, 3688
3358, 3590, 3591, 3690, 3689
3359, 3591, 3592, 3691, 3690
3360, 3592, 3593, 3692, 3691
3361, 3593, 3594, 3693, 3692
3362, 3594, 3595, 3694, 3693
3363, 3595, 3596, 3695, 3694
3364, 3596, 3597, 3696, 3695
3365, 3597, 3598, 3697, 3696
3366, 3598, 3599, 3698, 3697
3367, 3599, 3600, 3699, 3698
3368, 3600, 3601, 3700, 3699
3369, 3601, 3602, 3701, 3700
3370, 3602, 3603, 3702, 3701
3371, 3603, 3604, 3703, 3702
3372, 3604, 3605, 3704, 3703
3373, 3605, 3606, 3705, 3704
3374, 3606, 3607, 3706, 3705
3375, 3607, 3608, 3707, 3706
3376, 3608, 3609, 3708, 3707
3377, 3609, 3610, 3709, 3708
3378, 3610, 3611, 3710, 3709
3379, 3611, 3612, 3711, 3710
3380, 3612, 3613, 3712, 3711
3381, 3613, 3614, 3713, 3712
3382, 3614, 3615, 3714, 3713
3383, 3615, 3616, 3715, 3714
3384, 3616, 3617, 3716, 3715
3385, 3617, 3618, 3717, 3716
3386, 3618, 3619, 3718, 3717
3387, 3619, 3620, 3719, 3718
3388, 3620, 3621, 3720, 3719
3389, 3621, 3622, 3721, 3720
3390, 3622, 3623, 3722, 3721
3391, 3623, 3624, 3723, 3722
3392, 3624, 3625, 3724, 3723
3393, 3625, 3626, 3725, 3724
3394, 3626, 3627, 3726, 3725
3395, 3627, 3628, 3727, 3726
3396, 3628, 3629, 3728, 3727
3397, 3629, 3630, 3729, 3728
3398, 3630, 3631, 3730, 3729
3399, 3631, 3632, 3731, 3730
3400, 3632, 3633, 3732, 3731
3401, 3633, 3634, 3733, 3732
3402, 3634, 3635, 3734, 3733
3403, 3635, 3636, 3735, 3734
3404, 3636,  508,  509, 3735
3405, 531, 3637, 3736, 530
3406, 3637, 3638, 3737, 3736
3407, 3638, 3639, 3738, 3737
3408, 3639, 3640, 3739, 3738
3409, 3640, 3641, 3740, 3739
3410, 3641, 3642, 3741, 3740
3411, 3642, 3643, 3742, 3741
3412, 3643, 3644, 3743, 3742
3413, 3644, 3645, 3744, 3743
3414, 3645, 3646, 3745, 3744
3415, 3646, 3647, 3746, 3745
3416, 3647, 3648, 3747, 3746
3417, 3648, 3649, 3748, 3747
3418, 3649, 3650, 3749, 3748
3419, 3650, 3651, 3750, 3749
3420, 3651, 3652, 3751, 3750
3421, 3652, 3653, 3752, 3751
3422, 3653, 3654, 3753, 3752
3423, 3654, 3655, 3754, 3753
3424, 3655, 3656, 3755, 3754
3425, 3656, 3657, 3756, 3755
3426, 3657, 3658, 3757, 3756
3427, 3658, 3659, 3758, 3757
3428, 3659, 3660, 3759, 3758
3429, 3660, 3661, 3760, 3759
3430, 3661, 3662, 3761, 3760
3431, 3662, 3663, 3762, 3761
3432, 3663, 3664, 3763, 3762
3433, 3664, 3665, 3764, 3763
3434, 3665, 3666, 3765, 3764
3435, 3666, 3667, 3766, 3765
3436, 3667, 3668, 3767, 3766
3437, 3668, 3669, 3768, 3767
3438, 3669, 3670, 3769, 3768
3439, 3670, 3671, 3770, 3769
3440, 3671, 3672, 3771, 3770
3441, 3672, 3673, 3772, 3771
3442, 3673, 3674, 3773, 3772
3443, 3674, 3675, 3774, 3773
3444, 3675, 3676, 3775, 3774
3445, 3676, 3677, 3776, 3775
3446, 3677, 3678, 3777, 3776
3447, 3678, 3679, 3778, 3777
3448, 3679, 3680, 3779, 3778
3449, 3680, 3681, 3780, 3779
3450, 3681, 3682, 3781, 3780
3451, 3682, 3683, 3782, 3781
3452, 3683, 3684, 3783, 3782
3453, 3684, 3685, 3784, 3783
3454, 3685, 3686, 3785, 3784
3455, 3686, 3687, 3786, 3785
3456, 3687, 3688, 3787, 3786
3457, 3688, 3689, 3788, 3787
3458, 3689, 3690, 3789, 3788
3459, 3690, 3691, 3790, 3789
3460, 3691, 3692, 3791, 3790
3461, 3692, 3693, 3792, 3791
3462, 3693, 3694, 3793, 3792
3463, 3694, 3695, 3794, 3793
3464, 3695, 3696, 3795, 3794
3465, 3696, 3697, 3796, 3795
3466, 3697, 3698, 3797, 3796
3467, 3698, 3699, 3798, 3797
3468, 3699, 3700, 3799, 3798
3469, 3700, 3701, 3800, 3799
3470, 3701, 3702, 3801, 3800
3471, 3702, 3703, 3802, 3801
3472, 3703, 3704, 3803, 3802
3473, 3704, 3705, 3804, 3803
3474, 3705, 3706, 3805, 3804
3475, 3706, 3707, 3806, 3805
3476, 3707, 3708, 3807, 3806
3477, 3708, 3709, 3808, 3807
3478, 3709, 3710, 3809, 3808
3479, 3710, 3711, 3810, 3809
3480, 3711, 3712, 3811, 3810
3481, 3712, 3713, 3812, 3811
3482, 3713, 3714, 3813, 3812
3483, 3714, 3715, 3814, 3813
3484, 3715, 3716, 3815, 3814
3485, 3716, 3717, 3816, 3815
3486, 3717, 3718, 3817, 3816
3487, 3718, 3719, 3818, 3817
3488, 3719, 3720, 3819, 3818
3489, 3720, 3721, 3820, 3819
3490, 3721, 3722, 3821, 3820
3491, 3722, 3723, 3822, 3821
3492, 3723, 3724, 3823, 3822
3493, 3724, 3725, 3824, 3823
3494, 3725, 3726, 3825, 3824
3495, 3726, 3727, 3826, 3825
3496, 3727, 3728, 3827, 3826
3497, 3728, 3729, 3828, 3827
3498, 3729, 3730, 3829, 3828
3499, 3730, 3731, 3830, 3829
3500, 3731, 3732, 3831, 3830
3501, 3732, 3733, 3832, 3831
3502, 3733, 3734, 3833, 3832
3503, 3734, 3735, 3834, 3833
3504, 3735,  509,  510, 3834
3505, 530, 3736, 3835, 529
3506, 3736, 3737, 3836, 3835
3507, 3737, 3738, 3837, 3836
3508, 3738, 3739, 3838, 3837
3509, 3739, 3740, 3839, 3838
3510, 3740, 3741, 3840, 3839
3511, 3741, 3742, 3841, 3840
3512, 3742, 3743, 3842, 3841
3513, 3743, 3744, 3843, 3842
3514, 3744, 3745, 3844, 3843
3515, 3745, 3746, 3845, 3844
3516, 3746, 3747, 3846, 3845
3517, 3747, 3748, 3847, 3846
3518, 3748, 3749, 3848, 3847
3519, 3749, 3750, 3849, 3848
3520, 3750, 3751, 3850, 3849
3521, 3751, 3752, 3851, 3850
3522, 3752, 3753, 3852, 3851
3523, 3753, 3754, 3853, 3852
3524, 3754, 3755, 3854, 3853
3525, 3755, 3756, 3855, 3854
3526, 3756, 3757, 3856, 3855
3527, 3757, 3758, 3857, 3856
3528, 3758, 3759, 3858, 3857
3529, 3759, 3760, 3859, 3858
3530, 3760, 3761, 3860, 3859
3531, 3761, 3762, 3861, 3860
3532, 3762, 3763, 3862, 3861
3533, 3763, 3764, 3863, 3862
3534, 3764, 3765, 3864, 3863
3535, 3765, 3766, 3865, 3864
3536, 3766, 3767, 3866, 3865
3537, 3767, 3768, 3867, 3866
3538, 3768, 3769, 3868, 3867
3539, 3769, 3770, 3869, 3868
3540, 3770, 3771, 3870, 3869
3541, 3771, 3772, 3871, 3870
3542, 3772, 3773, 3872, 3871
3543, 3773, 3774, 3873, 3872
3544, 3774, 3775, 3874, 3873
3545, 3775, 3776, 3875, 3874
3546, 3776, 3777, 3876, 3875
3547, 3777, 3778, 3877, 3876
3548, 3778, 3779, 3878, 3877
3549, 3779, 3780, 3879, 3878
3550, 3780, 3781, 3880, 3879
3551, 3781, 3782, 3881, 3880
3552, 3782, 3783, 3882, 3881
3553, 3783, 3784, 3883, 3882
3554, 3784, 3785, 3884, 3883
3555, 3785, 3786, 3885, 3884
3556, 3786, 3787, 3886, 3885
3557, 3787, 3788, 3887, 3886
3558, 3788, 3789, 3888, 3887
3559, 3789, 3790, 3889, 3888
3560, 3790, 3791, 3890, 3889
3561, 3791, 3792, 3891, 3890
3562, 3792, 3793, 3892, 3891
3563, 3793, 3794, 3893, 3892
3564, 3794, 3795, 3894, 3893
3565, 3795, 3796, 3895, 3894
3566, 3796, 3797, 3896, 3895
3567, 3797, 3798, 3897, 3896
3568, 3798, 3799, 3898, 3897
3569, 3799, 3800, 3899, 3898
3570, 3800, 3801, 3900, 3899
3571, 3801, 3802, 3901, 3900
3572, 3802, 3803, 3902, 3901
3573, 3803, 3804, 3903, 3902
3574, 3804, 3805, 3904, 3903
3575, 3805, 3806, 3905, 3904
3576, 3806, 3807, 3906, 3905
3577, 3807, 3808, 3907, 3906
3578, 3808, 3809, 3908, 3907
3579, 3809, 3810, 3909, 3908
3580, 3810, 3811, 3910, 3909
3581, 3811, 3812, 3911, 3910
3582, 3812, 3813, 3912, 3911
3583, 3813, 3814, 3913, 3912
3584, 3814, 3815, 3914, 3913
3585, 3815, 3816, 3915, 3914
3586, 3816, 3817, 3916, 3915
3587, 3817, 3818, 3917, 3916
3588, 3818, 3819, 3918, 3917
3589, 3819, 3820, 3919, 3918
3590, 3820, 3821, 3920, 3919
3591, 3821, 3822, 3921, 3920
3592, 3822, 3823, 3922, 3921
3593, 3823, 3824, 3923, 3922
3594, 3824, 3825, 3924, 3923
3595, 3825, 3826, 3925, 3924
3596, 3826, 3827, 3926, 3925
3597, 3827, 3828, 3927, 3926
3598, 3828, 3829, 3928, 3927
3599, 3829, 3830, 3929, 3928
3600, 3830, 3831, 3930, 3929
3601, 3831, 3832, 3931, 3930
3602, 3832, 3833, 3932, 3931
3603, 3833, 3834, 3933, 3932
3604, 3834,  510,  511, 3933
3605, 529, 3835, 3934, 528
3606, 3835, 3836, 3935, 3934
3607, 3836, 3837, 3936, 3935
3608, 3837, 3838, 3937, 3936
3609, 3838, 3839, 3938, 3937
3610, 3839, 3840, 3939, 3938
3611, 3840, 3841, 3940, 3939
3612, 3841, 3842, 3941, 3940
3613, 3842, 3843, 3942, 3941
3614, 3843, 3844, 3943, 3942
3615, 3844, 3845, 3944, 3943
3616, 3845, 3846, 3945, 3944
3617, 3846, 3847, 3946, 3945
3618, 3847, 3848, 3947, 3946
3619, 3848, 3849, 3948, 3947
3620, 3849, 3850, 3949, 3948
3621, 3850, 3851, 3950, 3949
3622, 3851, 3852, 3951, 3950
3623, 3852, 3853, 3952, 3951
3624, 3853, 3854, 3953, 3952
3625, 3854, 3855, 3954, 3953
3626, 3855, 3856, 3955, 3954
3627, 3856, 3857, 3956, 3955
3628, 3857, 3858, 3957, 3956
3629, 3858, 3859, 3958, 3957
3630, 3859, 3860, 3959, 3958
3631, 3860, 3861, 3960, 3959
3632, 3861, 3862, 3961, 3960
3633, 3862, 3863, 3962, 3961
3634, 3863, 3864, 3963, 3962
3635, 3864, 3865, 3964, 3963
3636, 3865, 3866, 3965, 3964
3637, 3866, 3867, 3966, 3965
3638, 3867, 3868, 3967, 3966
3639, 3868, 3869, 3968, 3967
3640, 3869, 3870, 3969, 3968
3641, 3870, 3871, 3970, 3969
3642, 3871, 3872, 3971, 3970
3643, 3872, 3873, 3972, 3971
3644, 3873, 3874, 3973, 3972
3645, 3874, 3875, 3974, 3973
3646, 3875, 3876, 3975, 3974
3647, 3876, 3877, 3976, 3975
3648, 3877, 3878, 3977, 3976
3649, 3878, 3879, 3978, 3977
3650, 3879, 3880, 3979, 3978
3651, 3880, 3881, 3980, 3979
3652, 3881, 3882, 3981, 3980
3653, 3882, 3883, 3982, 3981
3654, 3883, 3884, 3983, 3982
3655, 3884, 3885, 3984, 3983
3656, 3885, 3886, 3985, 3984
3657, 3886, 3887, 3986, 3985
3658, 3887, 3888, 3987, 3986
3659, 3888, 3889, 3988, 3987
3660, 3889, 3890, 3989, 3988
3661, 3890, 3891, 3990, 3989
3662, 3891, 3892, 3991, 3990
3663, 3892, 3893, 3992, 3991
3664, 3893, 3894, 3993, 3992
3665, 3894, 3895, 3994, 3993
3666, 3895, 3896, 3995, 3994
3667, 3896, 3897, 3996, 3995
3668, 3897, 3898, 3997, 3996
3669, 3898, 3899, 3998, 3997
3670, 3899, 3900, 3999, 3998
3671, 3900, 3901, 4000, 3999
3672, 3901, 3902, 4001, 4000
3673, 3902, 3903, 4002, 4001
3674, 3903, 3904, 4003, 4002
3675, 3904, 3905, 4004, 4003
3676, 3905, 3906, 4005, 4004
3677, 3906, 3907, 4006, 4005
3678, 3907, 3908, 4007, 4006
3679, 3908, 3909, 4008, 4007
3680, 3909, 3910, 4009, 4008
3681, 3910, 3911, 4010, 4009
3682, 3911, 3912, 4011, 4010
3683, 3912, 3913, 4012, 4011
3684, 3913, 3914, 4013, 4012
3685, 3914, 3915, 4014, 4013
3686, 3915, 3916, 4015, 4014
3687, 3916, 3917, 4016, 4015
3688, 3917, 3918, 4017, 4016
3689, 3918, 3919, 4018, 4017
3690, 3919, 3920, 4019, 4018
3691, 3920, 3921, 4020, 4019
3692, 3921, 3922, 4021, 4020
3693, 3922, 3923, 4022, 4021
3694, 3923, 3924, 4023, 4022
3695, 3924, 3925, 4024, 4023
3696, 3925, 3926, 4025, 4024
3697, 3926, 3927, 4026, 4025
3698, 3927, 3928, 4027, 4026
3699, 3928, 3929, 4028, 4027
3700, 3929, 3930, 4029, 4028
3701, 3930, 3931, 4030, 4029
3702, 3931, 3932, 4031, 4030
3703, 3932, 3933, 4032, 4031
3704, 3933,  511,  512, 4032
3705, 528, 3934, 4033, 527
3706, 3934, 3935, 4034, 4033
3707, 3935, 3936, 4035, 4034
3708, 3936, 3937, 4036, 4035
3709, 3937, 3938, 4037, 4036
3710, 3938, 3939, 4038, 4037
3711, 3939, 3940, 4039, 4038
3712, 3940, 3941, 4040, 4039
3713, 3941, 3942, 4041, 4040
3714, 3942, 3943, 4042, 4041
3715, 3943, 3944, 4043, 4042
3716, 3944, 3945, 4044, 4043
3717, 3945, 3946, 4045, 4044
3718, 3946, 3947, 4046, 4045
3719, 3947, 3948, 4047, 4046
3720, 3948, 3949, 4048, 4047
3721, 3949, 3950, 4049, 4048
3722, 3950, 3951, 4050, 4049
3723, 3951, 3952, 4051, 4050
3724, 3952, 3953, 4052, 4051
3725, 3953, 3954, 4053, 4052
3726, 3954, 3955, 4054, 4053
3727, 3955, 3956, 4055, 4054
3728, 3956, 3957, 4056, 4055
3729, 3957, 3958, 4057, 4056
3730, 3958, 3959, 4058, 4057
3731, 3959, 3960, 4059, 4058
3732, 3960, 3961, 4060, 4059
3733, 3961, 3962, 4061, 4060
3734, 3962, 3963, 4062, 4061
3735, 3963, 3964, 4063, 4062
3736, 3964, 3965, 4064, 4063
3737, 3965, 3966, 4065, 4064
3738, 3966, 3967, 4066, 4065
3739, 3967, 3968, 4067, 4066
3740, 3968, 3969, 4068, 4067
3741, 3969, 3970, 4069, 4068
3742, 3970, 3971, 4070, 4069
3743, 3971, 3972, 4071, 4070
3744, 3972, 3973, 4072, 4071
3745, 3973, 3974, 4073, 4072
3746, 3974, 3975, 4074, 4073
3747, 3975, 3976, 4075, 4074
3748, 3976, 3977, 4076, 4075
3749, 3977, 3978, 4077, 4076
3750, 3978, 3979, 4078, 4077
3751, 3979, 3980, 4079, 4078
3752, 3980, 3981, 4080, 4079
3753, 3981, 3982, 4081, 4080
3754, 3982, 3983, 4082, 4081
3755, 3983, 3984, 4083, 4082
3756, 3984, 3985, 4084, 4083
3757, 3985, 3986, 4085, 4084
3758, 3986, 3987, 4086, 4085
3759, 3987, 3988, 4087, 4086
3760, 3988, 3989, 4088, 4087
3761, 3989, 3990, 4089, 4088
3762, 3990, 3991, 4090, 4089
3763, 3991, 3992, 4091, 4090
3764, 3992, 3993, 4092, 4091
3765, 3993, 3994, 4093, 4092
3766, 3994, 3995, 4094, 4093
3767, 3995, 3996, 4095, 4094
3768, 3996, 3997, 4096, 4095
3769, 3997, 3998, 4097, 4096
3770, 3998, 3999, 4098, 4097
3771, 3999, 4000, 4099, 4098
3772, 4000, 4001, 4100, 4099
3773, 4001, 4002, 4101, 4100
3774, 4002, 4003, 4102, 4101
3775, 4003, 4004, 4103, 4102
3776, 4004, 4005, 4104, 4103
3777, 4005, 4006, 4105, 4104
3778, 4006, 4007, 4106, 4105
3779, 4007, 4008, 4107, 4106
3780, 4008, 4009, 4108, 4107
3781, 4009, 4010, 4109, 4108
3782, 4010, 4011, 4110, 4109
3783, 4011, 4012, 4111, 4110
3784, 4012, 4013, 4112, 4111
3785, 4013, 4014, 4113, 4112
3786, 4014, 4015, 4114, 4113
3787, 4015, 4016, 4115, 4114
3788, 4016, 4017, 4116, 4115
3789, 4017, 4018, 4117, 4116
3790, 4018, 4019, 4118, 4117
3791, 4019, 4020, 4119, 4118
3792, 4020, 4021, 4120, 4119
3793, 4021, 4022, 4121, 4120
3794, 4022, 4023, 4122, 4121
3795, 4023, 4024, 4123, 4122
3796, 4024, 4025, 4124, 4123
3797, 4025, 4026, 4125, 4124
3798, 4026, 4027, 4126, 4125
3799, 4027, 4028, 4127, 4126
3800, 4028, 4029, 4128, 4127
3801, 4029, 4030, 4129, 4128
3802, 4030, 4031, 4130, 4129
3803, 4031, 4032, 4131, 4130
3804, 4032,  512,  513, 4131
3805, 527, 4033, 4132, 526
3806, 4033, 4034, 4133, 4132
3807, 4034, 4035, 4134, 4133
3808, 4035, 4036, 4135, 4134
3809, 4036, 4037, 4136, 4135
3810, 4037, 4038, 4137, 4136
3811, 4038, 4039, 4138, 4137
3812, 4039, 4040, 4139, 4138
3813, 4040, 4041, 4140, 4139
3814, 4041, 4042, 4141, 4140
3815, 4042, 4043, 4142, 4141
3816, 4043, 4044, 4143, 4142
3817, 4044, 4045, 4144, 4143
3818, 4045, 4046, 4145, 4144
3819, 4046, 4047, 4146, 4145
3820, 4047, 4048, 4147, 4146
3821, 4048, 4049, 4148, 4147
3822, 4049, 4050, 4149, 4148
3823, 4050, 4051, 4150, 4149
3824, 4051, 4052, 4151, 4150
3825, 4052, 4053, 4152, 4151
3826, 4053, 4054, 4153, 4152
3827, 4054, 4055, 4154, 4153
3828, 4055, 4056, 4155, 4154
3829, 4056, 4057, 4156, 4155
3830, 4057, 4058, 4157, 4156
3831, 4058, 4059, 4158, 4157
3832, 4059, 4060, 4159, 4158
3833, 4060, 4061, 4160, 4159
3834, 4061, 4062, 4161, 4160
3835, 4062, 4063, 4162, 4161
3836, 4063, 4064, 4163, 4162
3837, 4064, 4065, 4164, 4163
3838, 4065, 4066, 4165, 4164
3839, 4066, 4067, 4166, 4165
3840, 4067, 4068, 4167, 4166
3841, 4068, 4069, 4168, 4167
3842, 4069, 4070, 4169, 4168
3843, 4070, 4071, 4170, 4169
3844, 4071, 4072, 4171, 4170
3845, 4072, 4073, 4172, 4171
3846, 4073, 4074, 4173, 4172
3847, 4074, 4075, 4174, 4173
3848, 4075, 4076, 4175, 4174
3849, 4076, 4077, 4176, 4175
3850, 4077, 4078, 4177, 4176
3851, 4078, 4079, 4178, 4177
3852, 4079, 4080, 4179, 4178
3853, 4080, 4081, 4180, 4179
3854, 4081, 4082, 4181, 4180
3855, 4082, 4083, 4182, 4181
3856, 4083, 4084, 4183, 4182
3857, 4084, 4085, 4184, 4183
3858, 4085, 4086, 4185, 4184
3859, 4086, 4087, 4186, 4185
3860, 4087, 4088, 4187, 4186
3861, 4088, 4089, 4188, 4187
3862, 4089, 4090, 4189, 4188
3863, 4090, 4091, 4190, 4189
3864, 4091, 4092, 4191, 4190
3865, 4092, 4093, 4192, 4191
3866, 4093, 4094, 4193, 4192
3867, 4094, 4095, 4194, 4193
3868, 4095, 4096, 4195, 4194
3869, 4096, 4097, 4196, 4195
3870, 4097, 4098, 4197, 4196
3871, 4098, 4099, 4198, 4197
3872, 4099, 4100, 4199, 4198
3873, 4100, 4101, 4200, 4199
3874, 4101, 4102, 4201, 4200
3875, 4102, 4103, 4202, 4201
3876, 4103, 4104, 4203, 4202
3877, 4104, 4105, 4204, 4203
3878, 4105, 4106, 4205, 4204
3879, 4106, 4107, 4206, 4205
3880, 4107, 4108, 4207, 4206
3881, 4108, 4109, 4208, 4207
3882, 4109, 4110, 4209, 4208
3883, 4110, 4111, 4210, 4209
3884, 4111, 4112, 4211, 4210
3885, 4112, 4113, 4212, 4211
3886, 4113, 4114, 4213, 4212
3887, 4114, 4115, 4214, 4213
3888, 4115, 4116, 4215, 4214
3889, 4116, 4117, 4216, 4215
3890, 4117, 4118, 4217, 4216
3891, 4118, 4119, 4218, 4217
3892, 4119, 4120, 4219, 4218
3893, 4120, 4121, 4220, 4219
3894, 4121, 4122, 4221, 4220
3895, 4122, 4123, 4222, 4221
3896, 4123, 4124, 4223, 4222
3897, 4124, 4125, 4224, 4223
3898, 4125, 4126, 4225, 4224
3899, 4126, 4127, 4226, 4225
3900, 4127, 4128, 4227, 4226
3901, 4128, 4129, 4228, 4227
3902, 4129, 4130, 4229, 4228
3903, 4130, 4131, 4230, 4229
3904, 4131,  513,  514, 4230
3905, 526, 4132, 4231, 525
3906, 4132, 4133, 4232, 4231
3907, 4133, 4134, 4233, 4232
3908, 4134, 4135, 4234, 4233
3909, 4135, 4136, 4235, 4234
3910, 4136, 4137, 4236, 4235
3911, 4137, 4138, 4237, 4236
3912, 4138, 4139, 4238, 4237
3913, 4139, 4140, 4239, 4238
3914, 4140, 4141, 4240, 4239
3915, 4141, 4142, 4241, 4240
3916, 4142, 4143, 4242, 4241
3917, 4143, 4144, 4243, 4242
3918, 4144, 4145, 4244, 4243
3919, 4145, 4146, 4245, 4244
3920, 4146, 4147, 4246, 4245
3921, 4147, 4148, 4247, 4246
3922, 4148, 4149, 4248, 4247
3923, 4149, 4150, 4249, 4248
3924, 4150, 4151, 4250, 4249
3925, 4151, 4152, 4251, 4250
3926, 4152, 4153, 4252, 4251
3927, 4153, 4154, 4253, 4252
3928, 4154, 4155, 4254, 4253
3929, 4155, 4156, 4255, 4254
3930, 4156, 4157, 4256, 4255
3931, 4157, 4158, 4257, 4256
3932, 4158, 4159, 4258, 4257
3933, 4159, 4160, 4259, 4258
3934, 4160, 4161, 4260, 4259
3935, 4161, 4162, 4261, 4260
3936, 4162, 4163, 4262, 4261
3937, 4163, 4164, 4263, 4262
3938, 4164, 4165, 4264, 4263
3939, 4165, 4166, 4265, 4264
3940, 4166, 4167, 4266, 4265
3941, 4167, 4168, 4267, 4266
3942, 4168, 4169, 4268, 4267
3943, 4169, 4170, 4269, 4268
3944, 4170, 4171, 4270, 4269
3945, 4171, 4172, 4271, 4270
3946, 4172, 4173, 4272, 4271
3947, 4173, 4174, 4273, 4272
3948, 4174, 4175, 4274, 4273
3949, 4175, 4176, 4275, 4274
3950, 4176, 4177, 4276, 4275
3951, 4177, 4178, 4277, 4276
3952, 4178, 4179, 4278, 4277
3953, 4179, 4180, 4279, 4278
3954, 4180, 4181, 4280, 4279
3955, 4181, 4182, 4281, 4280
3956, 4182, 4183, 4282, 4281
3957, 4183, 4184, 4283, 4282
3958, 4184, 4185, 4284, 4283
3959, 4185, 4186, 4285, 4284
3960, 4186, 4187, 4286, 4285
3961, 4187, 4188, 4287, 4286
3962, 4188, 4189, 4288, 4287
3963, 4189, 4190, 4289, 4288
3964, 4190, 4191, 4290, 4289
3965, 4191, 4192, 4291, 4290
3966, 4192, 4193, 4292, 4291
3967, 4193, 4194, 4293, 4292
3968, 4194, 4195, 4294, 4293
3969, 4195, 4196, 4295, 4294
3970, 4196, 4197, 4296, 4295
3971, 4197, 4198, 4297, 4296
3972, 4198, 4199, 4298, 4297
3973, 4199, 4200, 4299, 4298
3974, 4200, 4201, 4300, 4299
3975, 4201, 4202, 4301, 4300
3976, 4202, 4203, 4302, 4301
3977, 4203, 4204, 4303, 4302
3978, 4204, 4205, 4304, 4303
3979, 4205, 4206, 4305, 4304
3980, 4206, 4207, 4306, 4305
3981, 4207, 4208, 4307, 4306
3982, 4208, 4209, 4308, 4307
3983, 4209, 4210, 4309, 4308
3984, 4210, 4211, 4310, 4309
3985, 4211, 4212, 4311, 4310
3986, 4212, 4213, 4312, 4311
3987, 4213, 4214, 4313, 4312
3988, 4214, 4215, 4314, 4313
3989, 4215, 4216, 4315, 4314
3990, 4216, 4217, 4316, 4315
3991, 4217, 4218, 4317, 4316
3992, 4218, 4219, 4318, 4317
3993, 4219, 4220, 4319, 4318
3994, 4220, 4221, 4320, 4319
3995, 4221, 4222, 4321, 4320
3996, 4222, 4223, 4322, 4321
3997, 4223, 4224, 4323, 4322
3998, 4224, 4225, 4324, 4323
3999, 4225, 4226, 4325, 4324
4000, 4226, 4227, 4326, 4325
4001, 4227, 4228, 4327, 4326
4002, 4228, 4229, 4328, 4327
4003, 4229, 4230, 4329, 4328
4004, 4230,  514,  515, 4329
4005, 525, 4231, 4330, 14
4006, 4231, 4232, 4331, 4330
4007, 4232, 4233, 4332, 4331
4008, 4233, 4234, 4333, 4332
4009, 4234, 4235, 4334, 4333
4010, 4235, 4236, 4335, 4334
4011, 4236, 4237, 4336, 4335
4012, 4237, 4238, 4337, 4336
4013, 4238, 4239, 4338, 4337
4014, 4239, 4240, 4339, 4338
4015, 4240, 4241, 4340, 4339
4016, 4241, 4242, 4341, 4340
4017, 4242, 4243, 4342, 4341
4018, 4243, 4244, 4343, 4342
4019, 4244, 4245, 4344, 4343
4020, 4245, 4246, 4345, 4344
4021, 4246, 4247, 4346, 4345
4022, 4247, 4248, 4347, 4346
4023, 4248, 4249, 4348, 4347
4024, 4249, 4250, 4349, 4348
4025, 4250, 4251, 4350, 4349
4026, 4251, 4252, 4351, 4350
4027, 4252, 4253, 4352, 4351
4028, 4253, 4254, 4353, 4352
4029, 4254, 4255, 4354, 4353
4030, 4255, 4256, 4355, 4354
4031, 4256, 4257, 4356, 4355
4032, 4257, 4258, 4357, 4356
4033, 4258, 4259, 4358, 4357
4034, 4259, 4260, 4359, 4358
4035, 4260, 4261, 4360, 4359
4036, 4261, 4262, 4361, 4360
4037, 4262, 4263, 4362, 4361
4038, 4263, 4264, 4363, 4362
4039, 4264, 4265, 4364, 4363
4040, 4265, 4266, 4365, 4364
4041, 4266, 4267, 4366, 4365
4042, 4267, 4268, 4367, 4366
4043, 4268, 4269, 4368, 4367
4044, 4269, 4270, 4369, 4368
4045, 4270, 4271, 4370, 4369
4046, 4271, 4272, 4371, 4370
4047, 4272, 4273, 4372, 4371
4048, 4273, 4274, 4373, 4372
4049, 4274, 4275, 4374, 4373
4050, 4275, 4276, 4375, 4374
4051, 4276, 4277, 4376, 4375
4052, 4277, 4278, 4377, 4376
4053, 4278, 4279, 4378, 4377
4054, 4279, 4280, 4379, 4378
4055, 4280, 4281, 4380, 4379
4056, 4281, 4282, 4381, 4380
4057, 4282, 4283, 4382, 4381
4058, 4283, 4284, 4383, 4382
4059, 4284, 4285, 4384, 4383
4060, 4285, 4286, 4385, 4384
4061, 4286, 4287, 4386, 4385
4062, 4287, 4288, 4387, 4386
4063, 4288, 4289, 4388, 4387
4064, 4289, 4290, 4389, 4388
4065, 4290, 4291, 4390, 4389
4066, 4291, 4292, 4391, 4390
4067, 4292, 4293, 4392, 4391
4068, 4293, 4294, 4393, 4392
4069, 4294, 4295, 4394, 4393
4070, 4295, 4296, 4395, 4394
4071, 4296, 4297, 4396, 4395
4072, 4297, 4298, 4397, 4396
4073, 4298, 4299, 4398, 4397
4074, 4299, 4300, 4399, 4398
4075, 4300, 4301, 4400, 4399
4076, 4301, 4302, 4401, 4400
4077, 4302, 4303, 4402, 4401
4078, 4303, 4304, 4403, 4402
4079, 4304, 4305, 4404, 4403
4080, 4305, 4306, 4405, 4404
4081, 4306, 4307, 4406, 4405
4082, 4307, 4308, 4407, 4406
4083, 4308, 4309, 4408, 4407
4084, 4309, 4310, 4409, 4408
4085, 4310, 4311, 4410, 4409
4086, 4311, 4312, 4411, 4410
4087, 4312, 4313, 4412, 4411
4088, 4313, 4314, 4413, 4412
4089, 4314, 4315, 4414, 4413
4090, 4315, 4316, 4415, 4414
4091, 4316, 4317, 4416, 4415
4092, 4317, 4318, 4417, 4416
4093, 4318, 4319, 4418, 4417
4094, 4319, 4320, 4419, 4418
4095, 4320, 4321, 4420, 4419
4096, 4321, 4322, 4421, 4420
4097, 4322, 4323, 4422, 4421
4098, 4323, 4324, 4423, 4422
4099, 4324, 4325, 4424, 4423
4100, 4325, 4326, 4425, 4424
4101, 4326, 4327, 4426, 4425
4102, 4327, 4328, 4427, 4426
4103, 4328, 4329, 4428, 4427
4104, 4329,  515,  516, 4428
4105, 14, 4330, 4429, 268
4106, 4330, 4331, 4430, 4429
4107, 4331, 4332, 4431, 4430
4108, 4332, 4333, 4432, 4431
4109, 4333, 4334, 4433, 4432
4110, 4334, 4335, 4434, 4433
4111, 4335, 4336, 4435, 4434
4112, 4336, 4337, 4436, 4435
4113, 4337, 4338, 4437, 4436
4114, 4338, 4339, 4438, 4437
4115, 4339, 4340, 4439, 4438
4116, 4340, 4341, 4440, 4439
4117, 4341, 4342, 4441, 4440
4118, 4342, 4343, 4442, 4441
4119, 4343, 4344, 4443, 4442
4120, 4344, 4345, 4444, 4443
4121, 4345, 4346, 4445, 4444
4122, 4346, 4347, 4446, 4445
4123, 4347, 4348, 4447, 4446
4124, 4348, 4349, 4448, 4447
4125, 4349, 4350, 4449, 4448
4126, 4350, 4351, 4450, 4449
4127, 4351, 4352, 4451, 4450
4128, 4352, 4353, 4452, 4451
4129, 4353, 4354, 4453, 4452
4130, 4354, 4355, 4454, 4453
4131, 4355, 4356, 4455, 4454
4132, 4356, 4357, 4456, 4455
4133, 4357, 4358, 4457, 4456
4134, 4358, 4359, 4458, 4457
4135, 4359, 4360, 4459, 4458
4136, 4360, 4361, 4460, 4459
4137, 4361, 4362, 4461, 4460
4138, 4362, 4363, 4462, 4461
4139, 4363, 4364, 4463, 4462
4140, 4364, 4365, 4464, 4463
4141, 4365, 4366, 4465, 4464
4142, 4366, 4367, 4466, 4465
4143, 4367, 4368, 4467, 4466
4144, 4368, 4369, 4468, 4467
4145, 4369, 4370, 4469, 4468
4146, 4370, 4371, 4470, 4469
4147, 4371, 4372, 4471, 4470
4148, 4372, 4373, 4472, 4471
4149, 4373, 4374, 4473, 4472
4150, 4374, 4375, 4474, 4473
4151, 4375, 4376, 4475, 4474
4152, 4376, 4377, 4476, 4475
4153, 4377, 4378, 4477, 4476
4154, 4378, 4379, 4478, 4477
4155, 4379, 4380, 4479, 4478
4156, 4380, 4381, 4480, 4479
4157, 4381, 4382, 4481, 4480
4158, 4382, 4383, 4482, 4481
4159, 4383, 4384, 4483, 4482
4160, 4384, 4385, 4484, 4483
4161, 4385, 4386, 4485, 4484
4162, 4386, 4387, 4486, 4485
4163, 4387, 4388, 4487, 4486
4164, 4388, 4389, 4488, 4487
4165, 4389, 4390, 4489, 4488
4166, 4390, 4391, 4490, 4489
4167, 4391, 4392, 4491, 4490
4168, 4392, 4393, 4492, 4491
4169, 4393, 4394, 4493, 4492
4170, 4394, 4395, 4494, 4493
4171, 4395, 4396, 4495, 4494
4172, 4396, 4397, 4496, 4495
4173, 4397, 4398, 4497, 4496
4174, 4398, 4399, 4498, 4497
4175, 4399, 4400, 4499, 4498
4176, 4400, 4401, 4500, 4499
4177, 4401, 4402, 4501, 4500
4178, 4402, 4403, 4502, 4501
4179, 4403, 4404, 4503, 4502
4180, 4404, 4405, 4504, 4503
4181, 4405, 4406, 4505, 4504
4182, 4406, 4407, 4506, 4505
4183, 4407, 4408, 4507, 4506
4184, 4408, 4409, 4508, 4507
4185, 4409, 4410, 4509, 4508
4186, 4410, 4411, 4510, 4509
4187, 4411, 4412, 4511, 4510
4188, 4412, 4413, 4512, 4511
4189, 4413, 4414, 4513, 4512
4190, 4414, 4415, 4514, 4513
4191, 4415, 4416, 4515, 4514
4192, 4416, 4417, 4516, 4515
4193, 4417, 4418, 4517, 4516
4194, 4418, 4419, 4518, 4517
4195, 4419, 4420, 4519, 4518
4196, 4420, 4421, 4520, 4519
4197, 4421, 4422, 4521, 4520
4198, 4422, 4423, 4522, 4521
4199, 4423, 4424, 4523, 4522
4200, 4424, 4425, 4524, 4523
4201, 4425, 4426, 4525, 4524
4202, 4426, 4427, 4526, 4525
4203, 4427, 4428, 4527, 4526
4204, 4428,  516,  517, 4527
4205, 268, 4429, 4528, 269
4206, 4429, 4430, 4529, 4528
4207, 4430, 4431, 4530, 4529
4208, 4431, 4432, 4531, 4530
4209, 4432, 4433, 4532, 4531
4210, 4433, 4434, 4533, 4532
4211, 4434, 4435, 4534, 4533
4212, 4435, 4436, 4535, 4534
4213, 4436, 4437, 4536, 4535
4214, 4437, 4438, 4537, 4536
4215, 4438, 4439, 4538, 4537
4216, 4439, 4440, 4539, 4538
4217, 4440, 4441, 4540, 4539
4218, 4441, 4442, 4541, 4540
4219, 4442, 4443, 4542, 4541
4220, 4443, 4444, 4543, 4542
4221, 4444, 4445, 4544, 4543
4222, 4445, 4446, 4545, 4544
4223, 4446, 4447, 4546, 4545
4224, 4447, 4448, 4547, 4546
4225, 4448, 4449, 4548, 4547
4226, 4449, 4450, 4549, 4548
4227, 4450, 4451, 4550, 4549
4228, 4451, 4452, 4551, 4550
4229, 4452, 4453, 4552, 4551
4230, 4453, 4454, 4553, 4552
4231, 4454, 4455, 4554, 4553
4232, 4455, 4456, 4555, 4554
4233, 4456, 4457, 4556, 4555
4234, 4457, 4458, 4557, 4556
4235, 4458, 4459, 4558, 4557
4236, 4459, 4460, 4559, 4558
4237, 4460, 4461, 4560, 4559
4238, 4461, 4462, 4561, 4560
4239, 4462, 4463, 4562, 4561
4240, 4463, 4464, 4563, 4562
4241, 4464, 4465, 4564, 4563
4242, 4465, 4466, 4565, 4564
4243, 4466, 4467, 4566, 4565
4244, 4467, 4468, 4567, 4566
4245, 4468, 4469, 4568, 4567
4246, 4469, 4470, 4569, 4568
4247, 4470, 4471, 4570, 4569
4248, 4471, 4472, 4571, 4570
4249, 4472, 4473, 4572, 4571
4250, 4473, 4474, 4573, 4572
4251, 4474, 4475, 4574, 4573
4252, 4475, 4476, 4575, 4574
4253, 4476, 4477, 4576, 4575
4254, 4477, 4478, 4577, 4576
4255, 4478, 4479, 4578, 4577
4256, 4479, 4480, 4579, 4578
4257, 4480, 4481, 4580, 4579
4258, 4481, 4482, 4581, 4580
4259, 4482, 4483, 4582, 4581
4260, 4483, 4484, 4583, 4582
4261, 4484, 4485, 4584, 4583
4262, 4485, 4486, 4585, 4584
4263, 4486, 4487, 4586, 4585
4264, 4487, 4488, 4587, 4586
4265, 4488, 4489, 4588, 4587
4266, 4489, 4490, 4589, 4588
4267, 4490, 4491, 4590, 4589
4268, 4491, 4492, 4591, 4590
4269, 4492, 4493, 4592, 4591
4270, 4493, 4494, 4593, 4592
4271, 4494, 4495, 4594, 4593
4272, 4495, 4496, 4595, 4594
4273, 4496, 4497, 4596, 4595
4274, 4497, 4498, 4597, 4596
4275, 4498, 4499, 4598, 4597
4276, 4499, 4500, 4599, 4598
4277, 4500, 4501, 4600, 4599
4278, 4501, 4502, 4601, 4600
4279, 4502, 4503, 4602, 4601
4280, 4503, 4504, 4603, 4602
4281, 4504, 4505, 4604, 4603
4282, 4505, 4506, 4605, 4604
4283, 4506, 4507, 4606, 4605
4284, 4507, 4508, 4607, 4606
4285, 4508, 4509, 4608, 4607
4286, 4509, 4510, 4609, 4608
4287, 4510, 4511, 4610, 4609
4288, 4511, 4512, 4611, 4610
4289, 4512, 4513, 4612, 4611
4290, 4513, 4514, 4613, 4612
4291, 4514, 4515, 4614, 4613
4292, 4515, 4516, 4615, 4614
4293, 4516, 4517, 4616, 4615
4294, 4517, 4518, 4617, 4616
4295, 4518, 4519, 4618, 4617
4296, 4519, 4520, 4619, 4618
4297, 4520, 4521, 4620, 4619
4298, 4521, 4522, 4621, 4620
4299, 4522, 4523, 4622, 4621
4300, 4523, 4524, 4623, 4622
4301, 4524, 4525, 4624, 4623
4302, 4525, 4526, 4625, 4624
4303, 4526, 4527, 4626, 4625
4304, 4527,  517,  518, 4626
4305, 269, 4528, 4627, 270
4306, 4528, 4529, 4628, 4627
4307, 4529, 4530, 4629, 4628
4308, 4530, 4531, 4630, 4629
4309, 4531, 4532, 4631, 4630
4310, 4532, 4533, 4632, 4631
4311, 4533, 4534, 4633, 4632
4312, 4534, 4535, 4634, 4633
4313, 4535, 4536, 4635, 4634
4314, 4536, 4537, 4636, 4635
4315, 4537, 4538, 4637, 4636
4316, 4538, 4539, 4638, 4637
4317, 4539, 4540, 4639, 4638
4318, 4540, 4541, 4640, 4639
4319, 4541, 4542, 4641, 4640
4320, 4542, 4543, 4642, 4641
4321, 4543, 4544, 4643, 4642
4322, 4544, 4545, 4644, 4643
4323, 4545, 4546, 4645, 4644
4324, 4546, 4547, 4646, 4645
4325, 4547, 4548, 4647, 4646
4326, 4548, 4549, 4648, 4647
4327, 4549, 4550, 4649, 4648
4328, 4550, 4551, 4650, 4649
4329, 4551, 4552, 4651, 4650
4330, 4552, 4553, 4652, 4651
4331, 4553, 4554, 4653, 4652
4332, 4554, 4555, 4654, 4653
4333, 4555, 4556, 4655, 4654
4334, 4556, 4557, 4656, 4655
4335, 4557, 4558, 4657, 4656
4336, 4558, 4559, 4658, 4657
4337, 4559, 4560, 4659, 4658
4338, 4560, 4561, 4660, 4659
4339, 4561, 4562, 4661, 4660
4340, 4562, 4563, 4662, 4661
4341, 4563, 4564, 4663, 4662
4342, 4564, 4565, 4664, 4663
4343, 4565, 4566, 4665, 4664
4344, 4566, 4567, 4666, 4665
4345, 4567, 4568, 4667, 4666
4346, 4568, 4569, 4668, 4667
4347, 4569, 4570, 4669, 4668
4348, 4570, 4571, 4670, 4669
4349, 4571, 4572, 4671, 4670
4350, 4572, 4573, 4672, 4671
4351, 4573, 4574, 4673, 4672
4352, 4574, 4575, 4674, 4673
4353, 4575, 4576, 4675, 4674
4354, 4576, 4577, 4676, 4675
4355, 4577, 4578, 4677, 4676
4356, 4578, 4579, 4678, 4677
4357, 4579, 4580, 4679, 4678
4358, 4580, 4581, 4680, 4679
4359, 4581, 4582, 4681, 4680
4360, 4582, 4583, 4682, 4681
4361, 4583, 4584, 4683, 4682
4362, 4584, 4585, 4684, 4683
4363, 4585, 4586, 4685, 4684
4364, 4586, 4587, 4686, 4685
4365, 4587, 4588, 4687, 4686
4366, 4588, 4589, 4688, 4687
4367, 4589, 4590, 4689, 4688
4368, 4590, 4591, 4690, 4689
4369, 4591, 4592, 4691, 4690
4370, 4592, 4593, 4692, 4691
4371, 4593, 4594, 4693, 4692
4372, 4594, 4595, 4694, 4693
4373, 4595, 4596, 4695, 4694
4374, 4596, 4597, 4696, 4695
4375, 4597, 4598, 4697, 4696
4376, 4598, 4599, 4698, 4697
4377, 4599, 4600, 4699, 4698
4378, 4600, 4601, 4700, 4699
4379, 4601, 4602, 4701, 4700
4380, 4602, 4603, 4702, 4701
4381, 4603, 4604, 4703, 4702
4382, 4604, 4605, 4704, 4703
4383, 4605, 4606, 4705, 4704
4384, 4606, 4607, 4706, 4705
4385, 4607, 4608, 4707, 4706
4386, 4608, 4609, 4708, 4707
4387, 4609, 4610, 4709, 4708
4388, 4610, 4611, 4710, 4709
4389, 4611, 4612, 4711, 4710
4390, 4612, 4613, 4712, 4711
4391, 4613, 4614, 4713, 4712
4392, 4614, 4615, 4714, 4713
4393, 4615, 4616, 4715, 4714
4394, 4616, 4617, 4716, 4715
4395, 4617, 4618, 4717, 4716
4396, 4618, 4619, 4718, 4717
4397, 4619, 4620, 4719, 4718
4398, 4620, 4621, 4720, 4719
4399, 4621, 4622, 4721, 4720
4400, 4622, 4623, 4722, 4721
4401, 4623, 4624, 4723, 4722
4402, 4624, 4625, 4724, 4723
4403, 4625, 4626, 4725, 4724
4404, 4626,  518,   23, 4725
4405, 270, 4627, 4726, 271
4406, 4627, 4628, 4727, 4726
4407, 4628, 4629, 4728, 4727
4408, 4629, 4630, 4729, 4728
4409, 4630, 4631, 4730, 4729
4410, 4631, 4632, 4731, 4730
4411, 4632, 4633, 4732, 4731
4412, 4633, 4634, 4733, 4732
4413, 4634, 4635, 4734, 4733
4414, 4635, 4636, 4735, 4734
4415, 4636, 4637, 4736, 4735
4416, 4637, 4638, 4737, 4736
4417, 4638, 4639, 4738, 4737
4418, 4639, 4640, 4739, 4738
4419, 4640, 4641, 4740, 4739
4420, 4641, 4642, 4741, 4740
4421, 4642, 4643, 4742, 4741
4422, 4643, 4644, 4743, 4742
4423, 4644, 4645, 4744, 4743
4424, 4645, 4646, 4745, 4744
4425, 4646, 4647, 4746, 4745
4426, 4647, 4648, 4747, 4746
4427, 4648, 4649, 4748, 4747
4428, 4649, 4650, 4749, 4748
4429, 4650, 4651, 4750, 4749
4430, 4651, 4652, 4751, 4750
4431, 4652, 4653, 4752, 4751
4432, 4653, 4654, 4753, 4752
4433, 4654, 4655, 4754, 4753
4434, 4655, 4656, 4755, 4754
4435, 4656, 4657, 4756, 4755
4436, 4657, 4658, 4757, 4756
4437, 4658, 4659, 4758, 4757
4438, 4659, 4660, 4759, 4758
4439, 4660, 4661, 4760, 4759
4440, 4661, 4662, 4761, 4760
4441, 4662, 4663, 4762, 4761
4442, 4663, 4664, 4763, 4762
4443, 4664, 4665, 4764, 4763
4444, 4665, 4666, 4765, 4764
4445, 4666, 4667, 4766, 4765
4446, 4667, 4668, 4767, 4766
4447, 4668, 4669, 4768, 4767
4448, 4669, 4670, 4769, 4768
4449, 4670, 4671, 4770, 4769
4450, 4671, 4672, 4771, 4770
4451, 4672, 4673, 4772, 4771
4452, 4673, 4674, 4773, 4772
4453, 4674, 4675, 4774, 4773
4454, 4675, 4676, 4775, 4774
4455, 4676, 4677, 4776, 4775
4456, 4677, 4678, 4777, 4776
4457, 4678, 4679, 4778, 4777
4458, 4679, 4680, 4779, 4778
4459, 4680, 4681, 4780, 4779
4460, 4681, 4682, 4781, 4780
4461, 4682, 4683, 4782, 4781
4462, 4683, 4684, 4783, 4782
4463, 4684, 4685, 4784, 4783
4464, 4685, 4686, 4785, 4784
4465, 4686, 4687, 4786, 4785
4466, 4687, 4688, 4787, 4786
4467, 4688, 4689, 4788, 4787
4468, 4689, 4690, 4789, 4788
4469, 4690, 4691, 4790, 4789
4470, 4691, 4692, 4791, 4790
4471, 4692, 4693, 4792, 4791
4472, 4693, 4694, 4793, 4792
4473, 4694, 4695, 4794, 4793
4474, 4695, 4696, 4795, 4794
4475, 4696, 4697, 4796, 4795
4476, 4697, 4698, 4797, 4796
4477, 4698, 4699, 4798, 4797
4478, 4699, 4700, 4799, 4798
4479, 4700, 4701, 4800, 4799
4480, 4701, 4702, 4801, 4800
4481, 4702, 4703, 4802, 4801
4482, 4703, 4704, 4803, 4802
4483, 4704, 4705, 4804, 4803
4484, 4705, 4706, 4805, 4804
4485, 4706, 4707, 4806, 4805
4486, 4707, 4708, 4807, 4806
4487, 4708, 4709, 4808, 4807
4488, 4709, 4710, 4809, 4808
4489, 4710, 4711, 4810, 4809
4490, 4711, 4712, 4811, 4810
4491, 4712, 4713, 4812, 4811
4492, 4713, 4714, 4813, 4812
4493, 4714, 4715, 4814, 4813
4494, 4715, 4716, 4815, 4814
4495, 4716, 4717, 4816, 4815
4496, 4717, 4718, 4817, 4816
4497, 4718, 4719, 4818, 4817
4498, 4719, 4720, 4819, 4818
4499, 4720, 4721, 4820, 4819
4500, 4721, 4722, 4821, 4820
4501, 4722, 4723, 4822, 4821
4502, 4723, 4724, 4823, 4822
4503, 4724, 4725, 4824, 4823
4504, 4725,   23,  519, 4824
4505, 271, 4726, 4825, 272
4506, 4726, 4727, 4826, 4825
4507, 4727, 4728, 4827, 4826
4508, 4728, 4729, 4828, 4827
4509, 4729, 4730, 4829, 4828
4510, 4730, 4731, 4830, 4829
4511, 4731, 4732, 4831, 4830
4512, 4732, 4733, 4832, 4831
4513, 4733, 4734, 4833, 4832
4514, 4734, 4735, 4834, 4833
4515, 4735, 4736, 4835, 4834
4516, 4736, 4737, 4836, 4835
4517, 4737, 4738, 4837, 4836
4518, 4738, 4739, 4838, 4837
4519, 4739, 4740, 4839, 4838
4520, 4740, 4741, 4840, 4839
4521, 4741, 4742, 4841, 4840
4522, 4742, 4743, 4842, 4841
4523, 4743, 4744, 4843, 4842
4524, 4744, 4745, 4844, 4843
4525, 4745, 4746, 4845, 4844
4526, 4746, 4747, 4846, 4845
4527, 4747, 4748, 4847, 4846
4528, 4748, 4749, 4848, 4847
4529, 4749, 4750, 4849, 4848
4530, 4750, 4751, 4850, 4849
4531, 4751, 4752, 4851, 4850
4532, 4752, 4753, 4852, 4851
4533, 4753, 4754, 4853, 4852
4534, 4754, 4755, 4854, 4853
4535, 4755, 4756, 4855, 4854
4536, 4756, 4757, 4856, 4855
4537, 4757, 4758, 4857, 4856
4538, 4758, 4759, 4858, 4857
4539, 4759, 4760, 4859, 4858
4540, 4760, 4761, 4860, 4859
4541, 4761, 4762, 4861, 4860
4542, 4762, 4763, 4862, 4861
4543, 4763, 4764, 4863, 4862
4544, 4764, 4765, 4864, 4863
4545, 4765, 4766, 4865, 4864
4546, 4766, 4767, 4866, 4865
4547, 4767, 4768, 4867, 4866
4548, 4768, 4769, 4868, 4867
4549, 4769, 4770, 4869, 4868
4550, 4770, 4771, 4870, 4869
4551, 4771, 4772, 4871, 4870
4552, 4772, 4773, 4872, 4871
4553, 4773, 4774, 4873, 4872
4554, 4774, 4775, 4874, 4873
4555, 4775, 4776, 4875, 4874
4556, 4776, 4777, 4876, 4875
4557, 4777, 4778, 4877, 4876
4558, 4778, 4779, 4878, 4877
4559, 4779, 4780, 4879, 4878
4560, 4780, 4781, 4880, 4879
4561, 4781, 4782, 4881, 4880
4562, 4782, 4783, 4882, 4881
4563, 4783, 4784, 4883, 4882
4564, 4784, 4785, 4884, 4883
4565, 4785, 4786, 4885, 4884
4566, 4786, 4787, 4886, 4885
4567, 4787, 4788, 4887, 4886
4568, 4788, 4789, 4888, 4887
4569, 4789, 4790, 4889, 4888
4570, 4790, 4791, 4890, 4889
4571, 4791, 4792, 4891, 4890
4572, 4792, 4793, 4892, 4891
4573, 4793, 4794, 4893, 4892
4574, 4794, 4795, 4894, 4893
4575, 4795, 4796, 4895, 4894
4576, 4796, 4797, 4896, 4895
4577, 4797, 4798, 4897, 4896
4578, 4798, 4799, 4898, 4897
4579, 4799, 4800, 4899, 4898
4580, 4800, 4801, 4900, 4899
4581, 4801, 4802, 4901, 4900
4582, 4802, 4803, 4902, 4901
4583, 4803, 4804, 4903, 4902
4584, 4804, 4805, 4904, 4903
4585, 4805, 4806, 4905, 4904
4586, 4806, 4807, 4906, 4905
4587, 4807, 4808, 4907, 4906
4588, 4808, 4809, 4908, 4907
4589, 4809, 4810, 4909, 4908
4590, 4810, 4811, 4910, 4909
4591, 4811, 4812, 4911, 4910
4592, 4812, 4813, 4912, 4911
4593, 4813, 4814, 4913, 4912
4594, 4814, 4815, 4914, 4913
4595, 4815, 4816, 4915, 4914
4596, 4816, 4817, 4916, 4915
4597, 4817, 4818, 4917, 4916
4598, 4818, 4819, 4918, 4917
4599, 4819, 4820, 4919, 4918
4600, 4820, 4821, 4920, 4919
4601, 4821, 4822, 4921, 4920
4602, 4822, 4823, 4922, 4921
4603, 4823, 4824, 4923, 4922
4604, 4824,  519,  520, 4923
4605, 272, 4825, 4924, 273
4606, 4825, 4826, 4925, 4924
4607, 4826, 4827, 4926, 4925
4608, 4827, 4828, 4927, 4926
4609, 4828, 4829, 4928, 4927
4610, 4829, 4830, 4929, 4928
4611, 4830, 4831, 4930, 4929
4612, 4831, 4832, 4931, 4930
4613, 4832, 4833, 4932, 4931
4614, 4833, 4834, 4933, 4932
4615, 4834, 4835, 4934, 4933
4616, 4835, 4836, 4935, 4934
4617, 4836, 4837, 4936, 4935
4618, 4837, 4838, 4937, 4936
4619, 4838, 4839, 4938, 4937
4620, 4839, 4840, 4939, 4938
4621, 4840, 4841, 4940, 4939
4622, 4841, 4842, 4941, 4940
4623, 4842, 4843, 4942, 4941
4624, 4843, 4844, 4943, 4942
4625, 4844, 4845, 4944, 4943
4626, 4845, 4846, 4945, 4944
4627, 4846, 4847, 4946, 4945
4628, 4847, 4848, 4947, 4946
4629, 4848, 4849, 4948, 4947
4630, 4849, 4850, 4949, 4948
4631, 4850, 4851, 4950, 4949
4632, 4851, 4852, 4951, 4950
4633, 4852, 4853, 4952, 4951
4634, 4853, 4854, 4953, 4952
4635, 4854, 4855, 4954, 4953
4636, 4855, 4856, 4955, 4954
4637, 4856, 4857, 4956, 4955
4638, 4857, 4858, 4957, 4956
4639, 4858, 4859, 4958, 4957
4640, 4859, 4860, 4959, 4958
4641, 4860, 4861, 4960, 4959
4642, 4861, 4862, 4961, 4960
4643, 4862, 4863, 4962, 4961
4644, 4863, 4864, 4963, 4962
4645, 4864, 4865, 4964, 4963
4646, 4865, 4866, 4965, 4964
4647, 4866, 4867, 4966, 4965
4648, 4867, 4868, 4967, 4966
4649, 4868, 4869, 4968, 4967
4650, 4869, 4870, 4969, 4968
4651, 4870, 4871, 4970, 4969
4652, 4871, 4872, 4971, 4970
4653, 4872, 4873, 4972, 4971
4654, 4873, 4874, 4973, 4972
4655, 4874, 4875, 4974, 4973
4656, 4875, 4876, 4975, 4974
4657, 4876, 4877, 4976, 4975
4658, 4877, 4878, 4977, 4976
4659, 4878, 4879, 4978, 4977
4660, 4879, 4880, 4979, 4978
4661, 4880, 4881, 4980, 4979
4662, 4881, 4882, 4981, 4980
4663, 4882, 4883, 4982, 4981
4664, 4883, 4884, 4983, 4982
4665, 4884, 4885, 4984, 4983
4666, 4885, 4886, 4985, 4984
4667, 4886, 4887, 4986, 4985
4668, 4887, 4888, 4987, 4986
4669, 4888, 4889, 4988, 4987
4670, 4889, 4890, 4989, 4988
4671, 4890, 4891, 4990, 4989
4672, 4891, 4892, 4991, 4990
4673, 4892, 4893, 4992, 4991
4674, 4893, 4894, 4993, 4992
4675, 4894, 4895, 4994, 4993
4676, 4895, 4896, 4995, 4994
4677, 4896, 4897, 4996, 4995
4678, 4897, 4898, 4997, 4996
4679, 4898, 4899, 4998, 4997
4680, 4899, 4900, 4999, 4998
4681, 4900, 4901, 5000, 4999
4682, 4901, 4902, 5001, 5000
4683, 4902, 4903, 5002, 5001
4684, 4903, 4904, 5003, 5002
4685, 4904, 4905, 5004, 5003
4686, 4905, 4906, 5005, 5004
4687, 4906, 4907, 5006, 5005
4688, 4907, 4908, 5007, 5006
4689, 4908, 4909, 5008, 5007
4690, 4909, 4910, 5009, 5008
4691, 4910, 4911, 5010, 5009
4692, 4911, 4912, 5011, 5010
4693, 4912, 4913, 5012, 5011
4694, 4913, 4914, 5013, 5012
4695, 4914, 4915, 5014, 5013
4696, 4915, 4916, 5015, 5014
4697, 4916, 4917, 5016, 5015
4698, 4917, 4918, 5017, 5016
4699, 4918, 4919, 5018, 5017
4700, 4919, 4920, 5019, 5018
4701, 4920, 4921, 5020, 5019
4702, 4921, 4922, 5021, 5020
4703, 4922, 4923, 5022, 5021
4704, 4923,  520,  521, 5022
4705, 273, 4924, 5023, 274
4706, 4924, 4925, 5024, 5023
4707, 4925, 4926, 5025, 5024
4708, 4926, 4927, 5026, 5025
4709, 4927, 4928, 5027, 5026
4710, 4928, 4929, 5028, 5027
4711, 4929, 4930, 5029, 5028
4712, 4930, 4931, 5030, 5029
4713, 4931, 4932, 5031, 5030
4714, 4932, 4933, 5032, 5031
4715, 4933, 4934, 5033, 5032
4716, 4934, 4935, 5034, 5033
4717, 4935, 4936, 5035, 5034
4718, 4936, 4937, 5036, 5035
4719, 4937, 4938, 5037, 5036
4720, 4938, 4939, 5038, 5037
4721, 4939, 4940, 5039, 5038
4722, 4940, 4941, 5040, 5039
4723, 4941, 4942, 5041, 5040
4724, 4942, 4943, 5042, 5041
4725, 4943, 4944, 5043, 5042
4726, 4944, 4945, 5044, 5043
4727, 4945, 4946, 5045, 5044
4728, 4946, 4947, 5046, 5045
4729, 4947, 4948, 5047, 5046
4730, 4948, 4949, 5048, 5047
4731, 4949, 4950, 5049, 5048
4732, 4950, 4951, 5050, 5049
4733, 4951, 4952, 5051, 5050
4734, 4952, 4953, 5052, 5051
4735, 4953, 4954, 5053, 5052
4736, 4954, 4955, 5054, 5053
4737, 4955, 4956, 5055, 5054
4738, 4956, 4957, 5056, 5055
4739, 4957, 4958, 5057, 5056
4740, 4958, 4959, 5058, 5057
4741, 4959, 4960, 5059, 5058
4742, 4960, 4961, 5060, 5059
4743, 4961, 4962, 5061, 5060
4744, 4962, 4963, 5062, 5061
4745, 4963, 4964, 5063, 5062
4746, 4964, 4965, 5064, 5063
4747, 4965, 4966, 5065, 5064
4748, 4966, 4967, 5066, 5065
4749, 4967, 4968, 5067, 5066
4750, 4968, 4969, 5068, 5067
4751, 4969, 4970, 5069, 5068
4752, 4970, 4971, 5070, 5069
4753, 4971, 4972, 5071, 5070
4754, 4972, 4973, 5072, 5071
4755, 4973, 4974, 5073, 5072
4756, 4974, 4975, 5074, 5073
4757, 4975, 4976, 5075, 5074
4758, 4976, 4977, 5076, 5075
4759, 4977, 4978, 5077, 5076
4760, 4978, 4979, 5078, 5077
4761, 4979, 4980, 5079, 5078
4762, 4980, 4981, 5080, 5079
4763, 4981, 4982, 5081, 5080
4764, 4982, 4983, 5082, 5081
4765, 4983, 4984, 5083, 5082
4766, 4984, 4985, 5084, 5083
4767, 4985, 4986, 5085, 5084
4768, 4986, 4987, 5086, 5085
4769, 4987, 4988, 5087, 5086
4770, 4988, 4989, 5088, 5087
4771, 4989, 4990, 5089, 5088
4772, 4990, 4991, 5090, 5089
4773, 4991, 4992, 5091, 5090
4774, 4992, 4993, 5092, 5091
4775, 4993, 4994, 5093, 5092
4776, 4994, 4995, 5094, 5093
4777, 4995, 4996, 5095, 5094
4778, 4996, 4997, 5096, 5095
4779, 4997, 4998, 5097, 5096
4780, 4998, 4999, 5098, 5097
4781, 4999, 5000, 5099, 5098
4782, 5000, 5001, 5100, 5099
4783, 5001, 5002, 5101, 5100
4784, 5002, 5003, 5102, 5101
4785, 5003, 5004, 5103, 5102
4786, 5004, 5005, 5104, 5103
4787, 5005, 5006, 5105, 5104
4788, 5006, 5007, 5106, 5105
4789, 5007, 5008, 5107, 5106
4790, 5008, 5009, 5108, 5107
4791, 5009, 5010, 5109, 5108
4792, 5010, 5011, 5110, 5109
4793, 5011, 5012, 5111, 5110
4794, 5012, 5013, 5112, 5111
4795, 5013, 5014, 5113, 5112
4796, 5014, 5015, 5114, 5113
4797, 5015, 5016, 5115, 5114
4798, 5016, 5017, 5116, 5115
4799, 5017, 5018, 5117, 5116
4800, 5018, 5019, 5118, 5117
4801, 5019, 5020, 5119, 5118
4802, 5020, 5021, 5120, 5119
4803, 5021, 5022, 5121, 5120
4804, 5022,  521,  522, 5121
4805, 274, 5023, 5122, 275
4806, 5023, 5024, 5123, 5122
4807, 5024, 5025, 5124, 5123
4808, 5025, 5026, 5125, 5124
4809, 5026, 5027, 5126, 5125
4810, 5027, 5028, 5127, 5126
4811, 5028, 5029, 5128, 5127
4812, 5029, 5030, 5129, 5128
4813, 5030, 5031, 5130, 5129
4814, 5031, 5032, 5131, 5130
4815, 5032, 5033, 5132, 5131
4816, 5033, 5034, 5133, 5132
4817, 5034, 5035, 5134, 5133
4818, 5035, 5036, 5135, 5134
4819, 5036, 5037, 5136, 5135
4820, 5037, 5038, 5137, 5136
4821, 5038, 5039, 5138, 5137
4822, 5039, 5040, 5139, 5138
4823, 5040, 5041, 5140, 5139
4824, 5041, 5042, 5141, 5140
4825, 5042, 5043, 5142, 5141
4826, 5043, 5044, 5143, 5142
4827, 5044, 5045, 5144, 5143
4828, 5045, 5046, 5145, 5144
4829, 5046, 5047, 5146, 5145
4830, 5047, 5048, 5147, 5146
4831, 5048, 5049, 5148, 5147
4832, 5049, 5050, 5149, 5148
4833, 5050, 5051, 5150, 5149
4834, 5051, 5052, 5151, 5150
4835, 5052, 5053, 5152, 5151
4836, 5053, 5054, 5153, 5152
4837, 5054, 5055, 5154, 5153
4838, 5055, 5056, 5155, 5154
4839, 5056, 5057, 5156, 5155
4840, 5057, 5058, 5157, 5156
4841, 5058, 5059, 5158, 5157
4842, 5059, 5060, 5159, 5158
4843, 5060, 5061, 5160, 5159
4844, 5061, 5062, 5161, 5160
4845, 5062, 5063, 5162, 5161
4846, 5063, 5064, 5163, 5162
4847, 5064, 5065, 5164, 5163
4848, 5065, 5066, 5165, 5164
4849, 5066, 5067, 5166, 5165
4850, 5067, 5068, 5167, 5166
4851, 5068, 5069, 5168, 5167
4852, 5069, 5070, 5169, 5168
4853, 5070, 5071, 5170, 5169
4854, 5071, 5072, 5171, 5170
4855, 5072, 5073, 5172, 5171
4856, 5073, 5074, 5173, 5172
4857, 5074, 5075, 5174, 5173
4858, 5075, 5076, 5175, 5174
4859, 5076, 5077, 5176, 5175
4860, 5077, 5078, 5177, 5176
4861, 5078, 5079, 5178, 5177
4862, 5079, 5080, 5179, 5178
4863, 5080, 5081, 5180, 5179
4864, 5081, 5082, 5181, 5180
4865, 5082, 5083, 5182, 5181
4866, 5083, 5084, 5183, 5182
4867, 5084, 5085, 5184, 5183
4868, 5085, 5086, 5185, 5184
4869, 5086, 5087, 5186, 5185
4870, 5087, 5088, 5187, 5186
4871, 5088, 5089, 5188, 5187
4872, 5089, 5090, 5189, 5188
4873, 5090, 5091, 5190, 5189
4874, 5091, 5092, 5191, 5190
4875, 5092, 5093, 5192, 5191
4876, 5093, 5094, 5193, 5192
4877, 5094, 5095, 5194, 5193
4878, 5095, 5096, 5195, 5194
4879, 5096, 5097, 5196, 5195
4880, 5097, 5098, 5197, 5196
4881, 5098, 5099, 5198, 5197
4882, 5099, 5100, 5199, 5198
4883, 5100, 5101, 5200, 5199
4884, 5101, 5102, 5201, 5200
4885, 5102, 5103, 5202, 5201
4886, 5103, 5104, 5203, 5202
4887, 5104, 5105, 5204, 5203
4888, 5105, 5106, 5205, 5204
4889, 5106, 5107, 5206, 5205
4890, 5107, 5108, 5207, 5206
4891, 5108, 5109, 5208, 5207
4892, 5109, 5110, 5209, 5208
4893, 5110, 5111, 5210, 5209
4894, 5111, 5112, 5211, 5210
4895, 5112, 5113, 5212, 5211
4896, 5113, 5114, 5213, 5212
4897, 5114, 5115, 5214, 5213
4898, 5115, 5116, 5215, 5214
4899, 5116, 5117, 5216, 5215
4900, 5117, 5118, 5217, 5216
4901, 5118, 5119, 5218, 5217
4902, 5119, 5120, 5219, 5218
4903, 5120, 5121, 5220, 5219
4904, 5121,  522,  523, 5220
4905, 275, 5122, 5221, 276
4906, 5122, 5123, 5222, 5221
4907, 5123, 5124, 5223, 5222
4908, 5124, 5125, 5224, 5223
4909, 5125, 5126, 5225, 5224
4910, 5126, 5127, 5226, 5225
4911, 5127, 5128, 5227, 5226
4912, 5128, 5129, 5228, 5227
4913, 5129, 5130, 5229, 5228
4914, 5130, 5131, 5230, 5229
4915, 5131, 5132, 5231, 5230
4916, 5132, 5133, 5232, 5231
4917, 5133, 5134, 5233, 5232
4918, 5134, 5135, 5234, 5233
4919, 5135, 5136, 5235, 5234
4920, 5136, 5137, 5236, 5235
4921, 5137, 5138, 5237, 5236
4922, 5138, 5139, 5238, 5237
4923, 5139, 5140, 5239, 5238
4924, 5140, 5141, 5240, 5239
4925, 5141, 5142, 5241, 5240
4926, 5142, 5143, 5242, 5241
4927, 5143, 5144, 5243, 5242
4928, 5144, 5145, 5244, 5243
4929, 5145, 5146, 5245, 5244
4930, 5146, 5147, 5246, 5245
4931, 5147, 5148, 5247, 5246
4932, 5148, 5149, 5248, 5247
4933, 5149, 5150, 5249, 5248
4934, 5150, 5151, 5250, 5249
4935, 5151, 5152, 5251, 5250
4936, 5152, 5153, 5252, 5251
4937, 5153, 5154, 5253, 5252
4938, 5154, 5155, 5254, 5253
4939, 5155, 5156, 5255, 5254
4940, 5156, 5157, 5256, 5255
4941, 5157, 5158, 5257, 5256
4942, 5158, 5159, 5258, 5257
4943, 5159, 5160, 5259, 5258
4944, 5160, 5161, 5260, 5259
4945, 5161, 5162, 5261, 5260
4946, 5162, 5163, 5262, 5261
4947, 5163, 5164, 5263, 5262
4948, 5164, 5165, 5264, 5263
4949, 5165, 5166, 5265, 5264
4950, 5166, 5167, 5266, 5265
4951, 5167, 5168, 5267, 5266
4952, 5168, 5169, 5268, 5267
4953, 5169, 5170, 5269, 5268
4954, 5170, 5171, 5270, 5269
4955, 5171, 5172, 5271, 5270
4956, 5172, 5173, 5272, 5271
4957, 5173, 5174, 5273, 5272
4958, 5174, 5175, 5274, 5273
4959, 5175, 5176, 5275, 5274
4960, 5176, 5177, 5276, 5275
4961, 5177, 5178, 5277, 5276
4962, 5178, 5179, 5278, 5277
4963, 5179, 5180, 5279, 5278
4964, 5180, 5181, 5280, 5279
4965, 5181, 5182, 5281, 5280
4966, 5182, 5183, 5282, 5281
4967, 5183, 5184, 5283, 5282
4968, 5184, 5185, 5284, 5283
4969, 5185, 5186, 5285, 5284
4970, 5186, 5187, 5286, 5285
4971, 5187, 5188, 5287, 5286
4972, 5188, 5189, 5288, 5287
4973, 5189, 5190, 5289, 5288
4974, 5190, 5191, 5290, 5289
4975, 5191, 5192, 5291, 5290
4976, 5192, 5193, 5292, 5291
4977, 5193, 5194, 5293, 5292
4978, 5194, 5195, 5294, 5293
4979, 5195, 5196, 5295, 5294
4980, 5196, 5197, 5296, 5295
4981, 5197, 5198, 5297, 5296
4982, 5198, 5199, 5298, 5297
4983, 5199, 5200, 5299, 5298
4984, 5200, 5201, 5300, 5299
4985, 5201, 5202, 5301, 5300
4986, 5202, 5203, 5302, 5301
4987, 5203, 5204, 5303, 5302
4988, 5204, 5205, 5304, 5303
4989, 5205, 5206, 5305, 5304
4990, 5206, 5207, 5306, 5305
4991, 5207, 5208, 5307, 5306
4992, 5208, 5209, 5308, 5307
4993, 5209, 5210, 5309, 5308
4994, 5210, 5211, 5310, 5309
4995, 5211, 5212, 5311, 5310
4996, 5212, 5213, 5312, 5311
4997, 5213, 5214, 5313, 5312
4998, 5214, 5215, 5314, 5313
4999, 5215, 5216, 5315, 5314
5000, 5216, 5217, 5316, 5315
5001, 5217, 5218, 5317, 5316
5002, 5218, 5219, 5318, 5317
5003, 5219, 5220, 5319, 5318
5004, 5220,  523,  524, 5319
5005, 276, 5221,  282, 15
5006, 5221, 5222,  283, 282
5007, 5222, 5223,  284, 283
5008, 5223, 5224,  285, 284
5009, 5224, 5225,  286, 285
5010, 5225, 5226,  287, 286
5011, 5226, 5227,  288, 287
5012, 5227, 5228,  289, 288
5013, 5228, 5229,  290, 289
5014, 5229, 5230,  291, 290
5015, 5230, 5231,  292, 291
5016, 5231, 5232,  293, 292
5017, 5232, 5233,  294, 293
5018, 5233, 5234,  295, 294
5019, 5234, 5235,  296, 295
5020, 5235, 5236,  297, 296
5021, 5236, 5237,  298, 297
5022, 5237, 5238,  299, 298
5023, 5238, 5239,  300, 299
5024, 5239, 5240,  301, 300
5025, 5240, 5241,  302, 301
5026, 5241, 5242,  303, 302
5027, 5242, 5243,  304, 303
5028, 5243, 5244,  305, 304
5029, 5244, 5245,  306, 305
5030, 5245, 5246,  307, 306
5031, 5246, 5247,  308, 307
5032, 5247, 5248,  309, 308
5033, 5248, 5249,  310, 309
5034, 5249, 5250,  311, 310
5035, 5250, 5251,  312, 311
5036, 5251, 5252,  313, 312
5037, 5252, 5253,  314, 313
5038, 5253, 5254,  315, 314
5039, 5254, 5255,  316, 315
5040, 5255, 5256,  317, 316
5041, 5256, 5257,  318, 317
5042, 5257, 5258,  319, 318
5043, 5258, 5259,  320, 319
5044, 5259, 5260,  321, 320
5045, 5260, 5261,  322, 321
5046, 5261, 5262,  323, 322
5047, 5262, 5263,  324, 323
5048, 5263, 5264,  325, 324
5049, 5264, 5265,  326, 325
5050, 5265, 5266,  327, 326
5051, 5266, 5267,  328, 327
5052, 5267, 5268,  329, 328
5053, 5268, 5269,  330, 329
5054, 5269, 5270,  331, 330
5055, 5270, 5271,  332, 331
5056, 5271, 5272,  333, 332
5057, 5272, 5273,  334, 333
5058, 5273, 5274,  335, 334
5059, 5274, 5275,  336, 335
5060, 5275, 5276,  337, 336
5061, 5276, 5277,  338, 337
5062, 5277, 5278,  339, 338
5063, 5278, 5279,  340, 339
5064, 5279, 5280,  341, 340
5065, 5280, 5281,  342, 341
5066, 5281, 5282,  343, 342
5067, 5282, 5283,  344, 343
5068, 5283, 5284,  345, 344
5069, 5284, 5285,  346, 345
5070, 5285, 5286,  347, 346
5071, 5286, 5287,  348, 347
5072, 5287, 5288,  349, 348
5073, 5288, 5289,  350, 349
5074, 5289, 5290,  351, 350
5075, 5290, 5291,  352, 351
5076, 5291, 5292,  353, 352
5077, 5292, 5293,  354, 353
5078, 5293, 5294,  355, 354
5079, 5294, 5295,  356, 355
5080, 5295, 5296,  357, 356
5081, 5296, 5297,  358, 357
5082, 5297, 5298,  359, 358
5083, 5298, 5299,  360, 359
5084, 5299, 5300,  361, 360
5085, 5300, 5301,  362, 361
5086, 5301, 5302,  363, 362
5087, 5302, 5303,  364, 363
5088, 5303, 5304,  365, 364
5089, 5304, 5305,  366, 365
5090, 5305, 5306,  367, 366
5091, 5306, 5307,  368, 367
5092, 5307, 5308,  369, 368
5093, 5308, 5309,  370, 369
5094, 5309, 5310,  371, 370
5095, 5310, 5311,  372, 371
5096, 5311, 5312,  373, 372
5097, 5312, 5313,  374, 373
5098, 5313, 5314,  375, 374
5099, 5314, 5315,  376, 375
5100, 5315, 5316,  377, 376
5101, 5316, 5317,  378, 377
5102, 5317, 5318,  379, 378
5103, 5318, 5319,  380, 379
5104, 5319,  524,   16, 380
5106, 5336, 5335,   18, 385
5107, 5337, 5343, 5346, 5340
5108, 5335, 5336, 5322, 5340
5109, 5321, 5322,  537, 538
5110, 17,  536, 5336, 385
5111, 5323, 5321,  538, 539
5112, 534,  535, 5334, 5350
5113, 5325, 5324,  540, 541
5114, 5320, 5325,  541, 542
5115, 5328, 5329,   61, 60
5116, 5342, 5345, 5339, 5348
5117, 544, 5326,  543, 24
5118, 5326, 5320,  542, 543
5119, 5331,   63,   62, 5330
5120, 546,   8,  63, 5331
5121, 7,  534, 5350, 56
5122, 5334, 5335, 5340, 5346
5123, 5344, 5343, 5341, 5338
5124, 5324, 5323,  539, 540
5125, 61, 5329, 5330, 62
5126, 537, 5322, 5336, 536
5127, 5324, 5338, 5341, 5323
5128, 5338, 5339, 5345, 5344
5129, 59, 5327, 5328, 60
5130, 5348, 5349, 5347, 5342
5131, 544,  545, 5349, 5326
5132, 5347, 5330, 5329, 5342
5133, 5327,   59,   58, 5333
5134, 5333,   58,   57, 5332
5135, 5325, 5339, 5338, 5324
5136, 5331, 5330, 5347, 5349
5137, 545,  546, 5331, 5349
5138, 5332,   57,   56, 5350
5139, 5332, 5350, 5334, 5346
5140, 5335, 5334,  535, 18
5141, 5321, 5337, 5340, 5322
5142, 5337, 5321, 5323, 5341
5143, 5339, 5325, 5320, 5348
5144, 5345, 5342, 5329, 5328
5145, 5343, 5344, 5327, 5333
5146, 5346, 5343, 5333, 5332
5147, 5328, 5327, 5344, 5345
5148, 5348, 5320, 5326, 5349
5169, 19, 5400, 5398, 399
5170, 401, 5397, 5605, 402
5171, 5443, 5597, 5617, 5449
5172, 387, 5448, 5400, 19
5173, 534,   7,  55, 5594
5174, 46,   6, 547, 5583
5175, 5600,  484,  483, 5356
5176, 493, 5443, 5596, 494
5177, 5399,  496,  495, 5444
5178, 5357,  480,  479, 5358
5179, 5404,  446,  445, 5375
5180, 5447, 5626, 5606, 5398
5181, 5353,  486,  485, 5403
5182, 5444,  495,  494, 5596
5183, 496, 5399, 5595, 497
5184, 21,  497, 5595, 550
5185, 5450, 5491, 5449, 5617
5186, 5406,  491,  490, 5598
5187, 5598,  490,  489, 5354
5188, 488, 5355, 5354, 489
5189, 5599,  487,  486, 5353
5190, 484, 5600, 5403, 485
5191, 5446, 5485, 5355, 5599
5192, 5356,  483,  482, 5413
5193, 5358,  479,  478, 5359
5194, 5359,  478,  477, 5407
5195, 476,  475, 5415, 5360
5196, 480, 5357, 5414, 481
5197, 5360, 5407,  477, 476
5198, 475,  474, 5361, 5415
5199, 5623, 5601, 5362, 5466
5200, 5362,  472,  471, 5408
5201, 5363,  470,  469, 5417
5202, 5364,  468,  467, 5418
5203, 5365,  466,  465, 5419
5204, 5366,  464,  463, 5420
5205, 5352,  462,  461, 5421
5206, 5408,  471,  470, 5363
5207, 5367,  459,  458, 5368
5208, 5368,  458,  457, 5369
5209, 5369,  457,  456, 5409
5210, 459, 5367, 5422, 460
5211, 5409,  456,  455, 5370
5212, 5370,  455,  454, 5423
5213, 5424, 5371,  453, 452
5214, 5425, 5372,  451, 450
5215, 450,  449, 5373, 5425
5216, 5602,  448,  447, 5374
5217, 5374,  447,  446, 5404
5218, 5375,  445,  444, 5427
5219, 5376,  443,  442, 5428
5220, 5429, 5377,  441, 440
5221, 440,  439, 5378, 5429
5222, 5379,  437,  436, 5410
5223, 5380, 5410,  436, 435
5224, 5430, 5380,  435, 434
5225, 5381,  433,  432, 5431
5226, 5382,  431,  430, 5432
5227, 5383,  429,  428, 5433
5228, 5434, 5384,  427, 426
5229, 426,  425, 5385, 5434
5230, 5386,  423,  422, 5411
5231, 5411,  422,  421, 5387
5232, 418,  417, 5389, 5388
5233, 5387,  421,  420, 5436
5234, 5388, 5437,  419, 418
5235, 416, 5390, 5389, 417
5236, 5412,  415,  414, 5391
5237, 5391,  414,  413, 5438
5238, 405, 5395, 5442, 406
5239, 403, 5351, 5396, 404
5240, 5397,  401,  400, 5606
5241, 5626, 5447, 5625, 5405
5242, 399, 5398, 5606, 400
5243, 5402, 5448,  387, 386
5244, 5402,  535, 5535, 5608
5245, 5452, 5412, 5454, 5519
5246, 5351,  403,  402, 5605
5247, 5420, 5462, 5419, 5366
5248, 462, 5352, 5420, 463
5249, 5431, 5476, 5430, 5381
5250, 5355,  488,  487, 5599
5251, 5353, 5403, 5619, 5488
5252, 5619, 5492, 5635, 5488
5253, 5413,  482,  481, 5414
5254, 5620, 5358, 5359, 5657
5255, 5361,  474,  473, 5601
5256, 5486, 5414, 5357, 5451
5257, 472, 5362, 5601, 473
5258, 5620, 5451, 5357, 5358
5259, 5361, 5601, 5623, 5416
5260, 468, 5364, 5417, 469
5261, 5623, 5466, 5639, 5416
5262, 466, 5365, 5418, 467
5263, 5408, 5363, 5417, 5467
5264, 5419,  465,  464, 5366
5265, 5417, 5364, 5418, 5468
5266, 5418, 5365, 5419, 5455
5267, 5420, 5352, 5421, 5469
5268, 460, 5422, 5421, 461
5269, 5458, 5622, 5369, 5409
5270, 5371, 5423,  454, 453
5271, 5373,  449,  448, 5602
5272, 5409, 5370, 5423, 5458
5273, 5423, 5371, 5424, 5461
5274, 5425, 5471, 5424, 5372
5275, 443, 5376, 5427, 444
5276, 5630, 5426, 5602, 5374
5277, 5378,  439,  438, 5603
5278, 437, 5379, 5603, 438
5279, 5377, 5428,  442, 441
5280, 5428, 5463, 5427, 5376
5281, 5473, 5502, 5463, 5428
5282, 5429, 5473, 5428, 5377
5283, 433, 5381, 5430, 434
5284, 431, 5382, 5431, 432
5285, 429, 5383, 5432, 430
5286, 5410, 5380, 5430, 5456
5287, 5431, 5382, 5432, 5464
5288, 5432, 5383, 5433, 5477
5289, 5434, 5478, 5433, 5384
5290, 5385,  425,  424, 5604
5291, 5633, 5385, 5604, 5435
5292, 423, 5386, 5604, 424
5293, 5526, 5494, 5479, 5514
5294, 5390,  416,  415, 5412
5295, 5436,  420,  419, 5437
5296, 412, 5392, 5438, 413
5297, 5437, 5452, 5460, 5436
5298, 5452, 5437, 5390, 5412
5299, 410, 5393, 5439, 411
5300, 5392,  412,  411, 5439
5301, 408,  407, 5441, 5394
5302, 5393,  410,  409, 5440
5303, 5412, 5391, 5438, 5454
5304, 5394, 5440,  409, 408
5305, 5438, 5392, 5439, 5481
5306, 5439, 5393, 5440, 5482
5307, 5440, 5394, 5441, 5483
5308, 5395,  405,  404, 5396
5309, 406, 5442, 5441, 407
5310, 5351, 5453, 5627, 5396
5311, 5447, 5398, 5400, 5487
5312, 5613, 5517, 5518, 5482
5313, 5555, 5537, 5549, 5610
5314, 5595, 5399,  549, 550
5315, 492, 5597, 5443, 493
5316, 5402,  386,   18, 535
5317, 5522, 5562, 5549, 5536
5318, 5449, 5491, 5490, 5615
5319, 5482, 5518, 5481, 5439
5320, 5605, 5397, 5405, 5453
5321, 491, 5406, 5597, 492
5322, 5618, 5450, 5406, 5598
5323, 5414, 5486, 5612, 5413
5324, 5521, 5651, 5532, 5492
5325, 5465, 5436, 5460, 5504
5326, 5612, 5600, 5356, 5413
5327, 5415, 5614, 5407, 5360
5328, 5415, 5361, 5416, 5614
5329, 5467, 5638, 5624, 5408
5330, 5468, 5418, 5455, 5640
5331, 5469, 5503, 5462, 5420
5332, 5470, 5421, 5422, 5621
5333, 5621, 5422, 5367, 5622
5334, 5372, 5424,  452, 451
5335, 5471, 5498, 5461, 5424
5336, 5472, 5653, 5426, 5630
5337, 5471, 5629, 5653, 5508
5338, 5602, 5426, 5629, 5373
5339, 5472, 5404, 5459, 5509
5340, 5404, 5375, 5427, 5459
5341, 5459, 5427, 5463, 5493
5342, 5631, 5473, 5429, 5378
5343, 5603, 5379, 5631, 5378
5344, 5475, 5410, 5456, 5632
5345, 5464, 5500, 5476, 5431
5346, 5384, 5433,  428, 427
5347, 5499, 5476, 5500, 5644
5348, 5477, 5433, 5478, 5494
5349, 5480, 5411, 5465, 5515
5350, 5436, 5465, 5411, 5387
5351, 5454, 5438, 5481, 5516
5352, 5395, 5484, 5628, 5442
5353, 5401,  549, 5399, 5444
5354, 5445, 5354, 5355, 5485
5355, 5353, 5488, 5446, 5599
5356, 5487, 5400, 5448, 5609
5357, 5610, 5565, 5563, 5555
5358, 5444, 5596, 5615, 5490
5359, 5491, 5445, 5485, 5538
5360, 5445, 5491, 5450, 5618
5361, 5503, 5506, 5545, 5524
5362, 5519, 5454, 5516, 5648
5363, 5484, 5627, 5453, 5641
5364, 5510, 5502, 5473, 5474
5365, 5561,  548, 5401, 5616
5366, 5650, 5506, 5503, 5469
5367, 5508, 5529, 5498, 5471
5368, 5526, 5514, 5543, 5558
5369, 5458, 5423, 5461, 5497
5370, 5455, 5419, 5462, 5496
5371, 5510, 5544, 5642, 5502
5372, 5542, 5647, 5644, 5500
5373, 5633, 5478, 5434, 5385
5374, 5467, 5417, 5468, 5505
5375, 5496, 5546, 5640, 5455
5376, 5469, 5421, 5470, 5650
5377, 5520, 5458, 5497, 5534
5378, 5650, 5520, 5534, 5506
5379, 5629, 5471, 5425, 5373
5380, 5509, 5507, 5653, 5472
5381, 5497, 5461, 5498, 5525
5382, 5509, 5459, 5493, 5527
5383, 5473, 5631, 5475, 5474
5384, 5510, 5632, 5512, 5511
5385, 5474, 5475, 5632, 5510
5386, 5499, 5512, 5632, 5456
5387, 5456, 5430, 5476, 5499
5388, 5513, 5477, 5494, 5526
5389, 5464, 5432, 5477, 5513
5390, 5478, 5633, 5479, 5494
5391, 5435, 5514, 5479, 5633
5392, 5514, 5435, 5480, 5515
5393, 5515, 5465, 5504, 5646
5394, 5386, 5480, 5435, 5604
5395, 5515, 5646, 5543, 5514
5396, 5517, 5537, 5649, 5518
5397, 5440, 5483, 5613, 5482
5398, 5484, 5652, 5483, 5628
5399, 5652, 5517, 5613, 5483
5400, 5489, 5641, 5625, 5611
5401, 5492, 5612, 5486, 5521
5402, 5656, 5658, 5495, 5639
5403, 5614, 5495, 5457, 5407
5404, 5619, 5600, 5612, 5492
5405, 5522, 5611, 5609, 5608
5406, 5489, 5536, 5517, 5652
5407, 5492, 5532, 5540, 5635
5408, 5446, 5488, 5538, 5485
5409, 5641, 5453, 5405, 5625
5410, 5513, 5542, 5500, 5464
5411, 5501, 5656, 5639, 5466
5412, 5548, 5636, 5550, 5531
5413, 5556, 5568, 5524, 5545
5414, 5511, 5547, 5655, 5544
5415, 5495, 5614, 5416, 5639
5416, 5501, 5466, 5624, 5659
5417, 5493, 5463, 5502, 5642
5418, 5621, 5520, 5650, 5470
5419, 5460, 5452, 5519, 5645
5420, 5533, 5552, 5530, 5645
5421, 5531, 5501, 5659, 5548
5422, 5640, 5546, 5505, 5468
5423, 5524, 5546, 5496, 5503
5424, 5534, 5497, 5525, 5553
5425, 5653, 5507, 5529, 5508
5426, 5529, 5507, 5541, 5637
5427, 5509, 5527, 5541, 5507
5428, 5512, 5528, 5547, 5511
5429, 5512, 5499, 5644, 5528
5430, 5542, 5513, 5526, 5558
5431, 5646, 5504, 5530, 5559
5432, 5645, 5530, 5504, 5460
5433, 5536, 5489, 5611, 5522
5434, 5536, 5549, 5537, 5517
5435, 5516, 5481, 5518, 5649
5436, 5616, 5538, 5554, 5561
5437, 5645, 5519, 5648, 5533
5438, 5657, 5521, 5451, 5620
5439, 5607, 5591,   54, 53
5440, 5490, 5491, 5538, 5616
5441, 5551, 5533, 5523, 5539
5442, 5568, 5654, 5546, 5524
5443, 5542, 5558, 5566, 5647
5444, 5525, 5498, 5529, 5553
5445, 5558, 5543, 5559, 5581
5446, 5532, 5531, 5550, 5540
5447, 5505, 5546, 5654, 5638
5448, 5548, 5659, 5654, 5568
5449, 5550, 5577, 5571, 5540
5450, 5545, 5506, 5534, 5569
5451, 5522, 5608, 5535, 5562
5452, 534, 5594, 5535, 535
5453, 5563, 5560, 5551, 5539
5454, 5649, 5537, 5539, 5523
5455, 5561, 5583,  547, 548
5456, 5570, 5552, 5560, 5572
5457, 5527, 5643, 5557, 5541
5458, 5580, 5564, 5637, 5574
5459, 5547, 5573, 5567, 5655
5460, 5643, 5642, 5544, 5655
5461, 5578, 5569, 5564, 5580
5462, 5547, 5528, 5566, 5573
5463, 5588, 5590, 5580, 5574
5464, 5552, 5533, 5551, 5560
5465, 5581, 5570, 5584, 5575
5466, 5553, 5564, 5569, 5534
5467, 5591, 5607, 5565, 5610
5468, 5539, 5537, 5555, 5563
5469, 5548, 5568, 5576, 5636
5470, 5558, 5581, 5575, 5566
5471, 5592, 5583, 5571, 5577
5472, 5591, 5594,   55, 54
5473, 5593, 5607,   53, 52
5474, 5553, 5529, 5637, 5564
5475, 5576, 5556, 5578, 5634
5476, 5635, 5540, 5571, 5554
5477, 5563, 5565, 5572, 5560
5478, 5573, 5566, 5575, 5585
5479, 5647, 5566, 5528, 5644
5480, 5582, 5574, 5557, 5567
5481, 5643, 5655, 5567, 5557
5482, 5578, 5556, 5545, 5569
5483, 5593, 5584, 5570, 5572
5484, 5559, 5552, 5570, 5581
5485, 5561, 5554, 5571, 5583
5486, 5588, 5574, 5582, 5586
5487, 5582, 5567, 5573, 5585
5488, 5587, 5584, 5593, 52
5489, 5636, 5579, 5577, 5550
5490, 5579, 5636, 5576, 5634
5491, 46, 5583, 5592, 47
5492, 5589, 5590,   49, 48
5493, 5589,   48,   47, 5592
5494, 5588,   50,   49, 5590
5495, 5575, 5584, 5587, 5585
5496, 5586, 5582, 5585, 5587
5497, 51, 5586, 5587, 52
5498, 5586,   51,   50, 5588
5499, 5634, 5590, 5589, 5579
5500, 5579, 5589, 5592, 5577
5501, 5578, 5580, 5590, 5634
5502, 5594, 5591, 5562, 5535
5503, 5615, 5596, 5443, 5449
5504, 5617, 5597, 5406, 5450
5505, 5618, 5598, 5354, 5445
5506, 5607, 5593, 5572, 5565
5507, 5402, 5608, 5609, 5448
5508, 5610, 5549, 5562, 5591
5509, 5609, 5611, 5625, 5487
5510, 5657, 5359, 5407, 5457
5511, 5520, 5621, 5622, 5458
5512, 5362, 5408, 5624, 5466
5513, 5626, 5405, 5397, 5606
5514, 5627, 5484, 5395, 5396
5515, 5628, 5483, 5441, 5442
5516, 5437, 5388, 5389, 5390
5517, 5630, 5374, 5404, 5472
5518, 5379, 5410, 5475, 5631
5519, 5488, 5635, 5554, 5538
5520, 5637, 5541, 5557, 5574
5521, 5624, 5638, 5654, 5659
5522, 5484, 5641, 5489, 5652
5523, 5527, 5493, 5642, 5643
5524, 5648, 5516, 5649, 5523
5525, 5658, 5656, 5651, 5521
5526, 5531, 5532, 5651, 5501
5527, 5657, 5457, 5658, 5521
***************************************************************
***************************************************************
*Element, type=U1
5105, 5343, 5337, 5341
5149, 5622, 5367, 5368
5150, 5480, 5386, 5411
5151, 5605, 5453, 5351
5152, 5487, 5625, 5447
5153, 5648, 5523, 5533
5154, 5600, 5619, 5403
5155, 548, 549, 5401
5156, 5490, 5401, 5444
5157, 5521, 5486, 5451
5158, 5503, 5496, 5462
5159, 5544, 5510, 5511
5160, 5501, 5651, 5656
5161, 5646, 5559, 5543
5162, 5559, 5530, 5552
5163, 5576, 5568, 5556
5164, 5616, 5401, 5490
5165, 5622, 5368, 5369
5166, 5505, 5638, 5467
5167, 5653, 5629, 5426
5168, 5495, 5658, 5457
***************************************************************
***************************************************************
********************** ASSIGNING MATERIAL PROP ****************
*Elset, elset=sample, generate
    1,  5527,     1
***************************************************************
*Uel property, elset=sample
20000, 0.2, 2.4, 2.5, 0.113, 2, 0
**E, nu, ft, lc, gc, k, ms
***************************************************************
*Element, type=CPE4
5528, 1,   2, 551, 45
5529, 2,  25, 552, 551
5530, 25,  26, 553, 552
5531, 26,  3, 27, 553
5532, 45, 551, 554, 44
5533, 551, 552, 555, 554
5534, 552, 553, 556, 555
5535, 553,  27,  28, 556
5536, 44, 554, 557, 43
5537, 554, 555, 558, 557
5538, 555, 556, 559, 558
5539, 556,  28,  29, 559
5540, 43, 557, 560, 42
5541, 557, 558, 561, 560
5542, 558, 559, 562, 561
5543, 559,  29,  30, 562
5544, 42, 560, 563, 41
5545, 560, 561, 564, 563
5546, 561, 562, 565, 564
5547, 562,  30,  31, 565
5548, 41, 563, 566, 40
5549, 563, 564, 567, 566
5550, 564, 565, 568, 567
5551, 565,  31,  32, 568
5552, 40, 566, 569, 39
5553, 566, 567, 570, 569
5554, 567, 568, 571, 570
5555, 568,  32,  33, 571
5556, 39, 569, 572, 38
5557, 569, 570, 573, 572
5558, 570, 571, 574, 573
5559, 571,  33,  34, 574
5560, 38, 572,  37, 5
5561, 572, 573,  36, 37
5562, 573, 574,  35, 36
5563, 574,  34,   4, 35
5564, 6,  46, 575, 160
5565, 46,  47, 576, 575
5566, 47,  48, 577, 576
5567, 48,  49, 578, 577
5568, 49,  50, 579, 578
5569, 50,  51, 580, 579
5570, 51,  52, 581, 580
5571, 52,  53, 582, 581
5572, 53,  54, 583, 582
5573, 54,  55, 584, 583
5574, 55,   7, 585, 584
5575, 7,  56, 586, 585
5576, 56,  57, 587, 586
5577, 57,  58, 588, 587
5578, 58,  59, 589, 588
5579, 59,  60, 590, 589
5580, 60,  61, 591, 590
5581, 61,  62, 592, 591
5582, 62,  63, 593, 592
5583, 63,  8, 64, 593
5584, 160, 575, 594, 159
5585, 575, 576, 595, 594
5586, 576, 577, 596, 595
5587, 577, 578, 597, 596
5588, 578, 579, 598, 597
5589, 579, 580, 599, 598
5590, 580, 581, 600, 599
5591, 581, 582, 601, 600
5592, 582, 583, 602, 601
5593, 583, 584, 603, 602
5594, 584, 585, 604, 603
5595, 585, 586, 605, 604
5596, 586, 587, 606, 605
5597, 587, 588, 607, 606
5598, 588, 589, 608, 607
5599, 589, 590, 609, 608
5600, 590, 591, 610, 609
5601, 591, 592, 611, 610
5602, 592, 593, 612, 611
5603, 593,  64,  65, 612
5604, 159, 594, 613, 158
5605, 594, 595, 614, 613
5606, 595, 596, 615, 614
5607, 596, 597, 616, 615
5608, 597, 598, 617, 616
5609, 598, 599, 618, 617
5610, 599, 600, 619, 618
5611, 600, 601, 620, 619
5612, 601, 602, 621, 620
5613, 602, 603, 622, 621
5614, 603, 604, 623, 622
5615, 604, 605, 624, 623
5616, 605, 606, 625, 624
5617, 606, 607, 626, 625
5618, 607, 608, 627, 626
5619, 608, 609, 628, 627
5620, 609, 610, 629, 628
5621, 610, 611, 630, 629
5622, 611, 612, 631, 630
5623, 612,  65,  66, 631
5624, 158, 613, 632, 157
5625, 613, 614, 633, 632
5626, 614, 615, 634, 633
5627, 615, 616, 635, 634
5628, 616, 617, 636, 635
5629, 617, 618, 637, 636
5630, 618, 619, 638, 637
5631, 619, 620, 639, 638
5632, 620, 621, 640, 639
5633, 621, 622, 641, 640
5634, 622, 623, 642, 641
5635, 623, 624, 643, 642
5636, 624, 625, 644, 643
5637, 625, 626, 645, 644
5638, 626, 627, 646, 645
5639, 627, 628, 647, 646
5640, 628, 629, 648, 647
5641, 629, 630, 649, 648
5642, 630, 631, 650, 649
5643, 631,  66,  67, 650
5644, 157, 632, 651, 156
5645, 632, 633, 652, 651
5646, 633, 634, 653, 652
5647, 634, 635, 654, 653
5648, 635, 636, 655, 654
5649, 636, 637, 656, 655
5650, 637, 638, 657, 656
5651, 638, 639, 658, 657
5652, 639, 640, 659, 658
5653, 640, 641, 660, 659
5654, 641, 642, 661, 660
5655, 642, 643, 662, 661
5656, 643, 644, 663, 662
5657, 644, 645, 664, 663
5658, 645, 646, 665, 664
5659, 646, 647, 666, 665
5660, 647, 648, 667, 666
5661, 648, 649, 668, 667
5662, 649, 650, 669, 668
5663, 650,  67,  68, 669
5664, 156, 651, 670, 155
5665, 651, 652, 671, 670
5666, 652, 653, 672, 671
5667, 653, 654, 673, 672
5668, 654, 655, 674, 673
5669, 655, 656, 675, 674
5670, 656, 657, 676, 675
5671, 657, 658, 677, 676
5672, 658, 659, 678, 677
5673, 659, 660, 679, 678
5674, 660, 661, 680, 679
5675, 661, 662, 681, 680
5676, 662, 663, 682, 681
5677, 663, 664, 683, 682
5678, 664, 665, 684, 683
5679, 665, 666, 685, 684
5680, 666, 667, 686, 685
5681, 667, 668, 687, 686
5682, 668, 669, 688, 687
5683, 669,  68,  69, 688
5684, 155, 670, 689, 154
5685, 670, 671, 690, 689
5686, 671, 672, 691, 690
5687, 672, 673, 692, 691
5688, 673, 674, 693, 692
5689, 674, 675, 694, 693
5690, 675, 676, 695, 694
5691, 676, 677, 696, 695
5692, 677, 678, 697, 696
5693, 678, 679, 698, 697
5694, 679, 680, 699, 698
5695, 680, 681, 700, 699
5696, 681, 682, 701, 700
5697, 682, 683, 702, 701
5698, 683, 684, 703, 702
5699, 684, 685, 704, 703
5700, 685, 686, 705, 704
5701, 686, 687, 706, 705
5702, 687, 688, 707, 706
5703, 688,  69,  70, 707
5704, 154, 689, 708, 153
5705, 689, 690, 709, 708
5706, 690, 691, 710, 709
5707, 691, 692, 711, 710
5708, 692, 693, 712, 711
5709, 693, 694, 713, 712
5710, 694, 695, 714, 713
5711, 695, 696, 715, 714
5712, 696, 697, 716, 715
5713, 697, 698, 717, 716
5714, 698, 699, 718, 717
5715, 699, 700, 719, 718
5716, 700, 701, 720, 719
5717, 701, 702, 721, 720
5718, 702, 703, 722, 721
5719, 703, 704, 723, 722
5720, 704, 705, 724, 723
5721, 705, 706, 725, 724
5722, 706, 707, 726, 725
5723, 707,  70,  71, 726
5724, 153, 708, 727, 152
5725, 708, 709, 728, 727
5726, 709, 710, 729, 728
5727, 710, 711, 730, 729
5728, 711, 712, 731, 730
5729, 712, 713, 732, 731
5730, 713, 714, 733, 732
5731, 714, 715, 734, 733
5732, 715, 716, 735, 734
5733, 716, 717, 736, 735
5734, 717, 718, 737, 736
5735, 718, 719, 738, 737
5736, 719, 720, 739, 738
5737, 720, 721, 740, 739
5738, 721, 722, 741, 740
5739, 722, 723, 742, 741
5740, 723, 724, 743, 742
5741, 724, 725, 744, 743
5742, 725, 726, 745, 744
5743, 726,  71,  72, 745
5744, 152, 727, 746, 151
5745, 727, 728, 747, 746
5746, 728, 729, 748, 747
5747, 729, 730, 749, 748
5748, 730, 731, 750, 749
5749, 731, 732, 751, 750
5750, 732, 733, 752, 751
5751, 733, 734, 753, 752
5752, 734, 735, 754, 753
5753, 735, 736, 755, 754
5754, 736, 737, 756, 755
5755, 737, 738, 757, 756
5756, 738, 739, 758, 757
5757, 739, 740, 759, 758
5758, 740, 741, 760, 759
5759, 741, 742, 761, 760
5760, 742, 743, 762, 761
5761, 743, 744, 763, 762
5762, 744, 745, 764, 763
5763, 745,  72,  73, 764
5764, 151, 746, 765, 150
5765, 746, 747, 766, 765
5766, 747, 748, 767, 766
5767, 748, 749, 768, 767
5768, 749, 750, 769, 768
5769, 750, 751, 770, 769
5770, 751, 752, 771, 770
5771, 752, 753, 772, 771
5772, 753, 754, 773, 772
5773, 754, 755, 774, 773
5774, 755, 756, 775, 774
5775, 756, 757, 776, 775
5776, 757, 758, 777, 776
5777, 758, 759, 778, 777
5778, 759, 760, 779, 778
5779, 760, 761, 780, 779
5780, 761, 762, 781, 780
5781, 762, 763, 782, 781
5782, 763, 764, 783, 782
5783, 764,  73,  74, 783
5784, 150, 765, 784, 149
5785, 765, 766, 785, 784
5786, 766, 767, 786, 785
5787, 767, 768, 787, 786
5788, 768, 769, 788, 787
5789, 769, 770, 789, 788
5790, 770, 771, 790, 789
5791, 771, 772, 791, 790
5792, 772, 773, 792, 791
5793, 773, 774, 793, 792
5794, 774, 775, 794, 793
5795, 775, 776, 795, 794
5796, 776, 777, 796, 795
5797, 777, 778, 797, 796
5798, 778, 779, 798, 797
5799, 779, 780, 799, 798
5800, 780, 781, 800, 799
5801, 781, 782, 801, 800
5802, 782, 783, 802, 801
5803, 783,  74,  75, 802
5804, 149, 784, 803, 148
5805, 784, 785, 804, 803
5806, 785, 786, 805, 804
5807, 786, 787, 806, 805
5808, 787, 788, 807, 806
5809, 788, 789, 808, 807
5810, 789, 790, 809, 808
5811, 790, 791, 810, 809
5812, 791, 792, 811, 810
5813, 792, 793, 812, 811
5814, 793, 794, 813, 812
5815, 794, 795, 814, 813
5816, 795, 796, 815, 814
5817, 796, 797, 816, 815
5818, 797, 798, 817, 816
5819, 798, 799, 818, 817
5820, 799, 800, 819, 818
5821, 800, 801, 820, 819
5822, 801, 802, 821, 820
5823, 802,  75,  76, 821
5824, 148, 803, 822, 147
5825, 803, 804, 823, 822
5826, 804, 805, 824, 823
5827, 805, 806, 825, 824
5828, 806, 807, 826, 825
5829, 807, 808, 827, 826
5830, 808, 809, 828, 827
5831, 809, 810, 829, 828
5832, 810, 811, 830, 829
5833, 811, 812, 831, 830
5834, 812, 813, 832, 831
5835, 813, 814, 833, 832
5836, 814, 815, 834, 833
5837, 815, 816, 835, 834
5838, 816, 817, 836, 835
5839, 817, 818, 837, 836
5840, 818, 819, 838, 837
5841, 819, 820, 839, 838
5842, 820, 821, 840, 839
5843, 821,  76,  77, 840
5844, 147, 822, 841, 146
5845, 822, 823, 842, 841
5846, 823, 824, 843, 842
5847, 824, 825, 844, 843
5848, 825, 826, 845, 844
5849, 826, 827, 846, 845
5850, 827, 828, 847, 846
5851, 828, 829, 848, 847
5852, 829, 830, 849, 848
5853, 830, 831, 850, 849
5854, 831, 832, 851, 850
5855, 832, 833, 852, 851
5856, 833, 834, 853, 852
5857, 834, 835, 854, 853
5858, 835, 836, 855, 854
5859, 836, 837, 856, 855
5860, 837, 838, 857, 856
5861, 838, 839, 858, 857
5862, 839, 840, 859, 858
5863, 840,  77,  78, 859
5864, 146, 841, 860, 145
5865, 841, 842, 861, 860
5866, 842, 843, 862, 861
5867, 843, 844, 863, 862
5868, 844, 845, 864, 863
5869, 845, 846, 865, 864
5870, 846, 847, 866, 865
5871, 847, 848, 867, 866
5872, 848, 849, 868, 867
5873, 849, 850, 869, 868
5874, 850, 851, 870, 869
5875, 851, 852, 871, 870
5876, 852, 853, 872, 871
5877, 853, 854, 873, 872
5878, 854, 855, 874, 873
5879, 855, 856, 875, 874
5880, 856, 857, 876, 875
5881, 857, 858, 877, 876
5882, 858, 859, 878, 877
5883, 859,  78,  79, 878
5884, 145, 860, 879, 144
5885, 860, 861, 880, 879
5886, 861, 862, 881, 880
5887, 862, 863, 882, 881
5888, 863, 864, 883, 882
5889, 864, 865, 884, 883
5890, 865, 866, 885, 884
5891, 866, 867, 886, 885
5892, 867, 868, 887, 886
5893, 868, 869, 888, 887
5894, 869, 870, 889, 888
5895, 870, 871, 890, 889
5896, 871, 872, 891, 890
5897, 872, 873, 892, 891
5898, 873, 874, 893, 892
5899, 874, 875, 894, 893
5900, 875, 876, 895, 894
5901, 876, 877, 896, 895
5902, 877, 878, 897, 896
5903, 878,  79,  80, 897
5904, 144, 879, 898, 143
5905, 879, 880, 899, 898
5906, 880, 881, 900, 899
5907, 881, 882, 901, 900
5908, 882, 883, 902, 901
5909, 883, 884, 903, 902
5910, 884, 885, 904, 903
5911, 885, 886, 905, 904
5912, 886, 887, 906, 905
5913, 887, 888, 907, 906
5914, 888, 889, 908, 907
5915, 889, 890, 909, 908
5916, 890, 891, 910, 909
5917, 891, 892, 911, 910
5918, 892, 893, 912, 911
5919, 893, 894, 913, 912
5920, 894, 895, 914, 913
5921, 895, 896, 915, 914
5922, 896, 897, 916, 915
5923, 897,  80,  81, 916
5924, 143, 898, 917, 142
5925, 898, 899, 918, 917
5926, 899, 900, 919, 918
5927, 900, 901, 920, 919
5928, 901, 902, 921, 920
5929, 902, 903, 922, 921
5930, 903, 904, 923, 922
5931, 904, 905, 924, 923
5932, 905, 906, 925, 924
5933, 906, 907, 926, 925
5934, 907, 908, 927, 926
5935, 908, 909, 928, 927
5936, 909, 910, 929, 928
5937, 910, 911, 930, 929
5938, 911, 912, 931, 930
5939, 912, 913, 932, 931
5940, 913, 914, 933, 932
5941, 914, 915, 934, 933
5942, 915, 916, 935, 934
5943, 916,  81,  82, 935
5944, 142, 917, 936, 141
5945, 917, 918, 937, 936
5946, 918, 919, 938, 937
5947, 919, 920, 939, 938
5948, 920, 921, 940, 939
5949, 921, 922, 941, 940
5950, 922, 923, 942, 941
5951, 923, 924, 943, 942
5952, 924, 925, 944, 943
5953, 925, 926, 945, 944
5954, 926, 927, 946, 945
5955, 927, 928, 947, 946
5956, 928, 929, 948, 947
5957, 929, 930, 949, 948
5958, 930, 931, 950, 949
5959, 931, 932, 951, 950
5960, 932, 933, 952, 951
5961, 933, 934, 953, 952
5962, 934, 935, 954, 953
5963, 935,  82,  83, 954
5964, 141, 936, 955, 140
5965, 936, 937, 956, 955
5966, 937, 938, 957, 956
5967, 938, 939, 958, 957
5968, 939, 940, 959, 958
5969, 940, 941, 960, 959
5970, 941, 942, 961, 960
5971, 942, 943, 962, 961
5972, 943, 944, 963, 962
5973, 944, 945, 964, 963
5974, 945, 946, 965, 964
5975, 946, 947, 966, 965
5976, 947, 948, 967, 966
5977, 948, 949, 968, 967
5978, 949, 950, 969, 968
5979, 950, 951, 970, 969
5980, 951, 952, 971, 970
5981, 952, 953, 972, 971
5982, 953, 954, 973, 972
5983, 954,  83,  84, 973
5984, 140, 955, 974, 139
5985, 955, 956, 975, 974
5986, 956, 957, 976, 975
5987, 957, 958, 977, 976
5988, 958, 959, 978, 977
5989, 959, 960, 979, 978
5990, 960, 961, 980, 979
5991, 961, 962, 981, 980
5992, 962, 963, 982, 981
5993, 963, 964, 983, 982
5994, 964, 965, 984, 983
5995, 965, 966, 985, 984
5996, 966, 967, 986, 985
5997, 967, 968, 987, 986
5998, 968, 969, 988, 987
5999, 969, 970, 989, 988
6000, 970, 971, 990, 989
6001, 971, 972, 991, 990
6002, 972, 973, 992, 991
6003, 973,  84,  85, 992
6004, 139, 974, 993, 138
6005, 974, 975, 994, 993
6006, 975, 976, 995, 994
6007, 976, 977, 996, 995
6008, 977, 978, 997, 996
6009, 978, 979, 998, 997
6010, 979, 980, 999, 998
6011, 980,  981, 1000, 999
6012, 981,  982, 1001, 1000
6013, 982,  983, 1002, 1001
6014, 983,  984, 1003, 1002
6015, 984,  985, 1004, 1003
6016, 985,  986, 1005, 1004
6017, 986,  987, 1006, 1005
6018, 987,  988, 1007, 1006
6019, 988,  989, 1008, 1007
6020, 989,  990, 1009, 1008
6021, 990,  991, 1010, 1009
6022, 991,  992, 1011, 1010
6023, 992,  85,  86, 1011
6024, 138,  993, 1012, 137
6025, 993,  994, 1013, 1012
6026, 994,  995, 1014, 1013
6027, 995,  996, 1015, 1014
6028, 996,  997, 1016, 1015
6029, 997,  998, 1017, 1016
6030, 998,  999, 1018, 1017
6031, 999, 1000, 1019, 1018
6032, 1000, 1001, 1020, 1019
6033, 1001, 1002, 1021, 1020
6034, 1002, 1003, 1022, 1021
6035, 1003, 1004, 1023, 1022
6036, 1004, 1005, 1024, 1023
6037, 1005, 1006, 1025, 1024
6038, 1006, 1007, 1026, 1025
6039, 1007, 1008, 1027, 1026
6040, 1008, 1009, 1028, 1027
6041, 1009, 1010, 1029, 1028
6042, 1010, 1011, 1030, 1029
6043, 1011,   86,   87, 1030
6044, 137, 1012, 1031, 136
6045, 1012, 1013, 1032, 1031
6046, 1013, 1014, 1033, 1032
6047, 1014, 1015, 1034, 1033
6048, 1015, 1016, 1035, 1034
6049, 1016, 1017, 1036, 1035
6050, 1017, 1018, 1037, 1036
6051, 1018, 1019, 1038, 1037
6052, 1019, 1020, 1039, 1038
6053, 1020, 1021, 1040, 1039
6054, 1021, 1022, 1041, 1040
6055, 1022, 1023, 1042, 1041
6056, 1023, 1024, 1043, 1042
6057, 1024, 1025, 1044, 1043
6058, 1025, 1026, 1045, 1044
6059, 1026, 1027, 1046, 1045
6060, 1027, 1028, 1047, 1046
6061, 1028, 1029, 1048, 1047
6062, 1029, 1030, 1049, 1048
6063, 1030,   87,   88, 1049
6064, 136, 1031, 1050, 135
6065, 1031, 1032, 1051, 1050
6066, 1032, 1033, 1052, 1051
6067, 1033, 1034, 1053, 1052
6068, 1034, 1035, 1054, 1053
6069, 1035, 1036, 1055, 1054
6070, 1036, 1037, 1056, 1055
6071, 1037, 1038, 1057, 1056
6072, 1038, 1039, 1058, 1057
6073, 1039, 1040, 1059, 1058
6074, 1040, 1041, 1060, 1059
6075, 1041, 1042, 1061, 1060
6076, 1042, 1043, 1062, 1061
6077, 1043, 1044, 1063, 1062
6078, 1044, 1045, 1064, 1063
6079, 1045, 1046, 1065, 1064
6080, 1046, 1047, 1066, 1065
6081, 1047, 1048, 1067, 1066
6082, 1048, 1049, 1068, 1067
6083, 1049,   88,   89, 1068
6084, 135, 1050, 1069, 134
6085, 1050, 1051, 1070, 1069
6086, 1051, 1052, 1071, 1070
6087, 1052, 1053, 1072, 1071
6088, 1053, 1054, 1073, 1072
6089, 1054, 1055, 1074, 1073
6090, 1055, 1056, 1075, 1074
6091, 1056, 1057, 1076, 1075
6092, 1057, 1058, 1077, 1076
6093, 1058, 1059, 1078, 1077
6094, 1059, 1060, 1079, 1078
6095, 1060, 1061, 1080, 1079
6096, 1061, 1062, 1081, 1080
6097, 1062, 1063, 1082, 1081
6098, 1063, 1064, 1083, 1082
6099, 1064, 1065, 1084, 1083
6100, 1065, 1066, 1085, 1084
6101, 1066, 1067, 1086, 1085
6102, 1067, 1068, 1087, 1086
6103, 1068,   89,   90, 1087
6104, 134, 1069, 1088, 133
6105, 1069, 1070, 1089, 1088
6106, 1070, 1071, 1090, 1089
6107, 1071, 1072, 1091, 1090
6108, 1072, 1073, 1092, 1091
6109, 1073, 1074, 1093, 1092
6110, 1074, 1075, 1094, 1093
6111, 1075, 1076, 1095, 1094
6112, 1076, 1077, 1096, 1095
6113, 1077, 1078, 1097, 1096
6114, 1078, 1079, 1098, 1097
6115, 1079, 1080, 1099, 1098
6116, 1080, 1081, 1100, 1099
6117, 1081, 1082, 1101, 1100
6118, 1082, 1083, 1102, 1101
6119, 1083, 1084, 1103, 1102
6120, 1084, 1085, 1104, 1103
6121, 1085, 1086, 1105, 1104
6122, 1086, 1087, 1106, 1105
6123, 1087,   90,   91, 1106
6124, 133, 1088, 1107, 132
6125, 1088, 1089, 1108, 1107
6126, 1089, 1090, 1109, 1108
6127, 1090, 1091, 1110, 1109
6128, 1091, 1092, 1111, 1110
6129, 1092, 1093, 1112, 1111
6130, 1093, 1094, 1113, 1112
6131, 1094, 1095, 1114, 1113
6132, 1095, 1096, 1115, 1114
6133, 1096, 1097, 1116, 1115
6134, 1097, 1098, 1117, 1116
6135, 1098, 1099, 1118, 1117
6136, 1099, 1100, 1119, 1118
6137, 1100, 1101, 1120, 1119
6138, 1101, 1102, 1121, 1120
6139, 1102, 1103, 1122, 1121
6140, 1103, 1104, 1123, 1122
6141, 1104, 1105, 1124, 1123
6142, 1105, 1106, 1125, 1124
6143, 1106,   91,   92, 1125
6144, 132, 1107, 1126, 131
6145, 1107, 1108, 1127, 1126
6146, 1108, 1109, 1128, 1127
6147, 1109, 1110, 1129, 1128
6148, 1110, 1111, 1130, 1129
6149, 1111, 1112, 1131, 1130
6150, 1112, 1113, 1132, 1131
6151, 1113, 1114, 1133, 1132
6152, 1114, 1115, 1134, 1133
6153, 1115, 1116, 1135, 1134
6154, 1116, 1117, 1136, 1135
6155, 1117, 1118, 1137, 1136
6156, 1118, 1119, 1138, 1137
6157, 1119, 1120, 1139, 1138
6158, 1120, 1121, 1140, 1139
6159, 1121, 1122, 1141, 1140
6160, 1122, 1123, 1142, 1141
6161, 1123, 1124, 1143, 1142
6162, 1124, 1125, 1144, 1143
6163, 1125,   92,   93, 1144
6164, 131, 1126, 1145, 130
6165, 1126, 1127, 1146, 1145
6166, 1127, 1128, 1147, 1146
6167, 1128, 1129, 1148, 1147
6168, 1129, 1130, 1149, 1148
6169, 1130, 1131, 1150, 1149
6170, 1131, 1132, 1151, 1150
6171, 1132, 1133, 1152, 1151
6172, 1133, 1134, 1153, 1152
6173, 1134, 1135, 1154, 1153
6174, 1135, 1136, 1155, 1154
6175, 1136, 1137, 1156, 1155
6176, 1137, 1138, 1157, 1156
6177, 1138, 1139, 1158, 1157
6178, 1139, 1140, 1159, 1158
6179, 1140, 1141, 1160, 1159
6180, 1141, 1142, 1161, 1160
6181, 1142, 1143, 1162, 1161
6182, 1143, 1144, 1163, 1162
6183, 1144,   93,   94, 1163
6184, 130, 1145, 1164, 129
6185, 1145, 1146, 1165, 1164
6186, 1146, 1147, 1166, 1165
6187, 1147, 1148, 1167, 1166
6188, 1148, 1149, 1168, 1167
6189, 1149, 1150, 1169, 1168
6190, 1150, 1151, 1170, 1169
6191, 1151, 1152, 1171, 1170
6192, 1152, 1153, 1172, 1171
6193, 1153, 1154, 1173, 1172
6194, 1154, 1155, 1174, 1173
6195, 1155, 1156, 1175, 1174
6196, 1156, 1157, 1176, 1175
6197, 1157, 1158, 1177, 1176
6198, 1158, 1159, 1178, 1177
6199, 1159, 1160, 1179, 1178
6200, 1160, 1161, 1180, 1179
6201, 1161, 1162, 1181, 1180
6202, 1162, 1163, 1182, 1181
6203, 1163,   94,   95, 1182
6204, 129, 1164, 1183, 128
6205, 1164, 1165, 1184, 1183
6206, 1165, 1166, 1185, 1184
6207, 1166, 1167, 1186, 1185
6208, 1167, 1168, 1187, 1186
6209, 1168, 1169, 1188, 1187
6210, 1169, 1170, 1189, 1188
6211, 1170, 1171, 1190, 1189
6212, 1171, 1172, 1191, 1190
6213, 1172, 1173, 1192, 1191
6214, 1173, 1174, 1193, 1192
6215, 1174, 1175, 1194, 1193
6216, 1175, 1176, 1195, 1194
6217, 1176, 1177, 1196, 1195
6218, 1177, 1178, 1197, 1196
6219, 1178, 1179, 1198, 1197
6220, 1179, 1180, 1199, 1198
6221, 1180, 1181, 1200, 1199
6222, 1181, 1182, 1201, 1200
6223, 1182,   95,   96, 1201
6224, 128, 1183, 1202, 127
6225, 1183, 1184, 1203, 1202
6226, 1184, 1185, 1204, 1203
6227, 1185, 1186, 1205, 1204
6228, 1186, 1187, 1206, 1205
6229, 1187, 1188, 1207, 1206
6230, 1188, 1189, 1208, 1207
6231, 1189, 1190, 1209, 1208
6232, 1190, 1191, 1210, 1209
6233, 1191, 1192, 1211, 1210
6234, 1192, 1193, 1212, 1211
6235, 1193, 1194, 1213, 1212
6236, 1194, 1195, 1214, 1213
6237, 1195, 1196, 1215, 1214
6238, 1196, 1197, 1216, 1215
6239, 1197, 1198, 1217, 1216
6240, 1198, 1199, 1218, 1217
6241, 1199, 1200, 1219, 1218
6242, 1200, 1201, 1220, 1219
6243, 1201,   96,   97, 1220
6244, 127, 1202, 1221, 126
6245, 1202, 1203, 1222, 1221
6246, 1203, 1204, 1223, 1222
6247, 1204, 1205, 1224, 1223
6248, 1205, 1206, 1225, 1224
6249, 1206, 1207, 1226, 1225
6250, 1207, 1208, 1227, 1226
6251, 1208, 1209, 1228, 1227
6252, 1209, 1210, 1229, 1228
6253, 1210, 1211, 1230, 1229
6254, 1211, 1212, 1231, 1230
6255, 1212, 1213, 1232, 1231
6256, 1213, 1214, 1233, 1232
6257, 1214, 1215, 1234, 1233
6258, 1215, 1216, 1235, 1234
6259, 1216, 1217, 1236, 1235
6260, 1217, 1218, 1237, 1236
6261, 1218, 1219, 1238, 1237
6262, 1219, 1220, 1239, 1238
6263, 1220,   97,   98, 1239
6264, 126, 1221, 1240, 125
6265, 1221, 1222, 1241, 1240
6266, 1222, 1223, 1242, 1241
6267, 1223, 1224, 1243, 1242
6268, 1224, 1225, 1244, 1243
6269, 1225, 1226, 1245, 1244
6270, 1226, 1227, 1246, 1245
6271, 1227, 1228, 1247, 1246
6272, 1228, 1229, 1248, 1247
6273, 1229, 1230, 1249, 1248
6274, 1230, 1231, 1250, 1249
6275, 1231, 1232, 1251, 1250
6276, 1232, 1233, 1252, 1251
6277, 1233, 1234, 1253, 1252
6278, 1234, 1235, 1254, 1253
6279, 1235, 1236, 1255, 1254
6280, 1236, 1237, 1256, 1255
6281, 1237, 1238, 1257, 1256
6282, 1238, 1239, 1258, 1257
6283, 1239,   98,   99, 1258
6284, 125, 1240, 1259, 124
6285, 1240, 1241, 1260, 1259
6286, 1241, 1242, 1261, 1260
6287, 1242, 1243, 1262, 1261
6288, 1243, 1244, 1263, 1262
6289, 1244, 1245, 1264, 1263
6290, 1245, 1246, 1265, 1264
6291, 1246, 1247, 1266, 1265
6292, 1247, 1248, 1267, 1266
6293, 1248, 1249, 1268, 1267
6294, 1249, 1250, 1269, 1268
6295, 1250, 1251, 1270, 1269
6296, 1251, 1252, 1271, 1270
6297, 1252, 1253, 1272, 1271
6298, 1253, 1254, 1273, 1272
6299, 1254, 1255, 1274, 1273
6300, 1255, 1256, 1275, 1274
6301, 1256, 1257, 1276, 1275
6302, 1257, 1258, 1277, 1276
6303, 1258,   99,  100, 1277
6304, 124, 1259, 1278, 123
6305, 1259, 1260, 1279, 1278
6306, 1260, 1261, 1280, 1279
6307, 1261, 1262, 1281, 1280
6308, 1262, 1263, 1282, 1281
6309, 1263, 1264, 1283, 1282
6310, 1264, 1265, 1284, 1283
6311, 1265, 1266, 1285, 1284
6312, 1266, 1267, 1286, 1285
6313, 1267, 1268, 1287, 1286
6314, 1268, 1269, 1288, 1287
6315, 1269, 1270, 1289, 1288
6316, 1270, 1271, 1290, 1289
6317, 1271, 1272, 1291, 1290
6318, 1272, 1273, 1292, 1291
6319, 1273, 1274, 1293, 1292
6320, 1274, 1275, 1294, 1293
6321, 1275, 1276, 1295, 1294
6322, 1276, 1277, 1296, 1295
6323, 1277,  100,  101, 1296
6324, 123, 1278, 1297, 122
6325, 1278, 1279, 1298, 1297
6326, 1279, 1280, 1299, 1298
6327, 1280, 1281, 1300, 1299
6328, 1281, 1282, 1301, 1300
6329, 1282, 1283, 1302, 1301
6330, 1283, 1284, 1303, 1302
6331, 1284, 1285, 1304, 1303
6332, 1285, 1286, 1305, 1304
6333, 1286, 1287, 1306, 1305
6334, 1287, 1288, 1307, 1306
6335, 1288, 1289, 1308, 1307
6336, 1289, 1290, 1309, 1308
6337, 1290, 1291, 1310, 1309
6338, 1291, 1292, 1311, 1310
6339, 1292, 1293, 1312, 1311
6340, 1293, 1294, 1313, 1312
6341, 1294, 1295, 1314, 1313
6342, 1295, 1296, 1315, 1314
6343, 1296,  101,  102, 1315
6344, 122, 1297,  121, 10
6345, 1297, 1298,  120, 121
6346, 1298, 1299,  119, 120
6347, 1299, 1300,  118, 119
6348, 1300, 1301,  117, 118
6349, 1301, 1302,  116, 117
6350, 1302, 1303,  115, 116
6351, 1303, 1304,  114, 115
6352, 1304, 1305,  113, 114
6353, 1305, 1306,  112, 113
6354, 1306, 1307,  111, 112
6355, 1307, 1308,  110, 111
6356, 1308, 1309,  109, 110
6357, 1309, 1310,  108, 109
6358, 1310, 1311,  107, 108
6359, 1311, 1312,  106, 107
6360, 1312, 1313,  105, 106
6361, 1313, 1314,  104, 105
6362, 1314, 1315,  103, 104
6363, 1315,  102,    9, 103
6364, 4,   34, 1316, 267
6365, 34,   33, 1317, 1316
6366, 33,   32, 1318, 1317
6367, 32,   31, 1319, 1318
6368, 31,   30, 1320, 1319
6369, 30,   29, 1321, 1320
6370, 29,   28, 1322, 1321
6371, 28,   27, 1323, 1322
6372, 27,    3, 1324, 1323
6373, 3,  161, 1325, 1324
6374, 161,  162, 1326, 1325
6375, 162,  163, 1327, 1326
6376, 163,  164, 1328, 1327
6377, 164,  165, 1329, 1328
6378, 165,  166, 1330, 1329
6379, 166,  167, 1331, 1330
6380, 167,  168, 1332, 1331
6381, 168,  169, 1333, 1332
6382, 169,  170, 1334, 1333
6383, 170,  11, 171, 1334
6384, 267, 1316, 1335, 266
6385, 1316, 1317, 1336, 1335
6386, 1317, 1318, 1337, 1336
6387, 1318, 1319, 1338, 1337
6388, 1319, 1320, 1339, 1338
6389, 1320, 1321, 1340, 1339
6390, 1321, 1322, 1341, 1340
6391, 1322, 1323, 1342, 1341
6392, 1323, 1324, 1343, 1342
6393, 1324, 1325, 1344, 1343
6394, 1325, 1326, 1345, 1344
6395, 1326, 1327, 1346, 1345
6396, 1327, 1328, 1347, 1346
6397, 1328, 1329, 1348, 1347
6398, 1329, 1330, 1349, 1348
6399, 1330, 1331, 1350, 1349
6400, 1331, 1332, 1351, 1350
6401, 1332, 1333, 1352, 1351
6402, 1333, 1334, 1353, 1352
6403, 1334,  171,  172, 1353
6404, 266, 1335, 1354, 265
6405, 1335, 1336, 1355, 1354
6406, 1336, 1337, 1356, 1355
6407, 1337, 1338, 1357, 1356
6408, 1338, 1339, 1358, 1357
6409, 1339, 1340, 1359, 1358
6410, 1340, 1341, 1360, 1359
6411, 1341, 1342, 1361, 1360
6412, 1342, 1343, 1362, 1361
6413, 1343, 1344, 1363, 1362
6414, 1344, 1345, 1364, 1363
6415, 1345, 1346, 1365, 1364
6416, 1346, 1347, 1366, 1365
6417, 1347, 1348, 1367, 1366
6418, 1348, 1349, 1368, 1367
6419, 1349, 1350, 1369, 1368
6420, 1350, 1351, 1370, 1369
6421, 1351, 1352, 1371, 1370
6422, 1352, 1353, 1372, 1371
6423, 1353,  172,  173, 1372
6424, 265, 1354, 1373, 264
6425, 1354, 1355, 1374, 1373
6426, 1355, 1356, 1375, 1374
6427, 1356, 1357, 1376, 1375
6428, 1357, 1358, 1377, 1376
6429, 1358, 1359, 1378, 1377
6430, 1359, 1360, 1379, 1378
6431, 1360, 1361, 1380, 1379
6432, 1361, 1362, 1381, 1380
6433, 1362, 1363, 1382, 1381
6434, 1363, 1364, 1383, 1382
6435, 1364, 1365, 1384, 1383
6436, 1365, 1366, 1385, 1384
6437, 1366, 1367, 1386, 1385
6438, 1367, 1368, 1387, 1386
6439, 1368, 1369, 1388, 1387
6440, 1369, 1370, 1389, 1388
6441, 1370, 1371, 1390, 1389
6442, 1371, 1372, 1391, 1390
6443, 1372,  173,  174, 1391
6444, 264, 1373, 1392, 263
6445, 1373, 1374, 1393, 1392
6446, 1374, 1375, 1394, 1393
6447, 1375, 1376, 1395, 1394
6448, 1376, 1377, 1396, 1395
6449, 1377, 1378, 1397, 1396
6450, 1378, 1379, 1398, 1397
6451, 1379, 1380, 1399, 1398
6452, 1380, 1381, 1400, 1399
6453, 1381, 1382, 1401, 1400
6454, 1382, 1383, 1402, 1401
6455, 1383, 1384, 1403, 1402
6456, 1384, 1385, 1404, 1403
6457, 1385, 1386, 1405, 1404
6458, 1386, 1387, 1406, 1405
6459, 1387, 1388, 1407, 1406
6460, 1388, 1389, 1408, 1407
6461, 1389, 1390, 1409, 1408
6462, 1390, 1391, 1410, 1409
6463, 1391,  174,  175, 1410
6464, 263, 1392, 1411, 262
6465, 1392, 1393, 1412, 1411
6466, 1393, 1394, 1413, 1412
6467, 1394, 1395, 1414, 1413
6468, 1395, 1396, 1415, 1414
6469, 1396, 1397, 1416, 1415
6470, 1397, 1398, 1417, 1416
6471, 1398, 1399, 1418, 1417
6472, 1399, 1400, 1419, 1418
6473, 1400, 1401, 1420, 1419
6474, 1401, 1402, 1421, 1420
6475, 1402, 1403, 1422, 1421
6476, 1403, 1404, 1423, 1422
6477, 1404, 1405, 1424, 1423
6478, 1405, 1406, 1425, 1424
6479, 1406, 1407, 1426, 1425
6480, 1407, 1408, 1427, 1426
6481, 1408, 1409, 1428, 1427
6482, 1409, 1410, 1429, 1428
6483, 1410,  175,  176, 1429
6484, 262, 1411, 1430, 261
6485, 1411, 1412, 1431, 1430
6486, 1412, 1413, 1432, 1431
6487, 1413, 1414, 1433, 1432
6488, 1414, 1415, 1434, 1433
6489, 1415, 1416, 1435, 1434
6490, 1416, 1417, 1436, 1435
6491, 1417, 1418, 1437, 1436
6492, 1418, 1419, 1438, 1437
6493, 1419, 1420, 1439, 1438
6494, 1420, 1421, 1440, 1439
6495, 1421, 1422, 1441, 1440
6496, 1422, 1423, 1442, 1441
6497, 1423, 1424, 1443, 1442
6498, 1424, 1425, 1444, 1443
6499, 1425, 1426, 1445, 1444
6500, 1426, 1427, 1446, 1445
6501, 1427, 1428, 1447, 1446
6502, 1428, 1429, 1448, 1447
6503, 1429,  176,  177, 1448
6504, 261, 1430, 1449, 260
6505, 1430, 1431, 1450, 1449
6506, 1431, 1432, 1451, 1450
6507, 1432, 1433, 1452, 1451
6508, 1433, 1434, 1453, 1452
6509, 1434, 1435, 1454, 1453
6510, 1435, 1436, 1455, 1454
6511, 1436, 1437, 1456, 1455
6512, 1437, 1438, 1457, 1456
6513, 1438, 1439, 1458, 1457
6514, 1439, 1440, 1459, 1458
6515, 1440, 1441, 1460, 1459
6516, 1441, 1442, 1461, 1460
6517, 1442, 1443, 1462, 1461
6518, 1443, 1444, 1463, 1462
6519, 1444, 1445, 1464, 1463
6520, 1445, 1446, 1465, 1464
6521, 1446, 1447, 1466, 1465
6522, 1447, 1448, 1467, 1466
6523, 1448,  177,  178, 1467
6524, 260, 1449, 1468, 259
6525, 1449, 1450, 1469, 1468
6526, 1450, 1451, 1470, 1469
6527, 1451, 1452, 1471, 1470
6528, 1452, 1453, 1472, 1471
6529, 1453, 1454, 1473, 1472
6530, 1454, 1455, 1474, 1473
6531, 1455, 1456, 1475, 1474
6532, 1456, 1457, 1476, 1475
6533, 1457, 1458, 1477, 1476
6534, 1458, 1459, 1478, 1477
6535, 1459, 1460, 1479, 1478
6536, 1460, 1461, 1480, 1479
6537, 1461, 1462, 1481, 1480
6538, 1462, 1463, 1482, 1481
6539, 1463, 1464, 1483, 1482
6540, 1464, 1465, 1484, 1483
6541, 1465, 1466, 1485, 1484
6542, 1466, 1467, 1486, 1485
6543, 1467,  178,  179, 1486
6544, 259, 1468, 1487, 258
6545, 1468, 1469, 1488, 1487
6546, 1469, 1470, 1489, 1488
6547, 1470, 1471, 1490, 1489
6548, 1471, 1472, 1491, 1490
6549, 1472, 1473, 1492, 1491
6550, 1473, 1474, 1493, 1492
6551, 1474, 1475, 1494, 1493
6552, 1475, 1476, 1495, 1494
6553, 1476, 1477, 1496, 1495
6554, 1477, 1478, 1497, 1496
6555, 1478, 1479, 1498, 1497
6556, 1479, 1480, 1499, 1498
6557, 1480, 1481, 1500, 1499
6558, 1481, 1482, 1501, 1500
6559, 1482, 1483, 1502, 1501
6560, 1483, 1484, 1503, 1502
6561, 1484, 1485, 1504, 1503
6562, 1485, 1486, 1505, 1504
6563, 1486,  179,  180, 1505
6564, 258, 1487, 1506, 257
6565, 1487, 1488, 1507, 1506
6566, 1488, 1489, 1508, 1507
6567, 1489, 1490, 1509, 1508
6568, 1490, 1491, 1510, 1509
6569, 1491, 1492, 1511, 1510
6570, 1492, 1493, 1512, 1511
6571, 1493, 1494, 1513, 1512
6572, 1494, 1495, 1514, 1513
6573, 1495, 1496, 1515, 1514
6574, 1496, 1497, 1516, 1515
6575, 1497, 1498, 1517, 1516
6576, 1498, 1499, 1518, 1517
6577, 1499, 1500, 1519, 1518
6578, 1500, 1501, 1520, 1519
6579, 1501, 1502, 1521, 1520
6580, 1502, 1503, 1522, 1521
6581, 1503, 1504, 1523, 1522
6582, 1504, 1505, 1524, 1523
6583, 1505,  180,  181, 1524
6584, 257, 1506, 1525, 256
6585, 1506, 1507, 1526, 1525
6586, 1507, 1508, 1527, 1526
6587, 1508, 1509, 1528, 1527
6588, 1509, 1510, 1529, 1528
6589, 1510, 1511, 1530, 1529
6590, 1511, 1512, 1531, 1530
6591, 1512, 1513, 1532, 1531
6592, 1513, 1514, 1533, 1532
6593, 1514, 1515, 1534, 1533
6594, 1515, 1516, 1535, 1534
6595, 1516, 1517, 1536, 1535
6596, 1517, 1518, 1537, 1536
6597, 1518, 1519, 1538, 1537
6598, 1519, 1520, 1539, 1538
6599, 1520, 1521, 1540, 1539
6600, 1521, 1522, 1541, 1540
6601, 1522, 1523, 1542, 1541
6602, 1523, 1524, 1543, 1542
6603, 1524,  181,  182, 1543
6604, 256, 1525, 1544, 255
6605, 1525, 1526, 1545, 1544
6606, 1526, 1527, 1546, 1545
6607, 1527, 1528, 1547, 1546
6608, 1528, 1529, 1548, 1547
6609, 1529, 1530, 1549, 1548
6610, 1530, 1531, 1550, 1549
6611, 1531, 1532, 1551, 1550
6612, 1532, 1533, 1552, 1551
6613, 1533, 1534, 1553, 1552
6614, 1534, 1535, 1554, 1553
6615, 1535, 1536, 1555, 1554
6616, 1536, 1537, 1556, 1555
6617, 1537, 1538, 1557, 1556
6618, 1538, 1539, 1558, 1557
6619, 1539, 1540, 1559, 1558
6620, 1540, 1541, 1560, 1559
6621, 1541, 1542, 1561, 1560
6622, 1542, 1543, 1562, 1561
6623, 1543,  182,  183, 1562
6624, 255, 1544, 1563, 254
6625, 1544, 1545, 1564, 1563
6626, 1545, 1546, 1565, 1564
6627, 1546, 1547, 1566, 1565
6628, 1547, 1548, 1567, 1566
6629, 1548, 1549, 1568, 1567
6630, 1549, 1550, 1569, 1568
6631, 1550, 1551, 1570, 1569
6632, 1551, 1552, 1571, 1570
6633, 1552, 1553, 1572, 1571
6634, 1553, 1554, 1573, 1572
6635, 1554, 1555, 1574, 1573
6636, 1555, 1556, 1575, 1574
6637, 1556, 1557, 1576, 1575
6638, 1557, 1558, 1577, 1576
6639, 1558, 1559, 1578, 1577
6640, 1559, 1560, 1579, 1578
6641, 1560, 1561, 1580, 1579
6642, 1561, 1562, 1581, 1580
6643, 1562,  183,  184, 1581
6644, 254, 1563, 1582, 253
6645, 1563, 1564, 1583, 1582
6646, 1564, 1565, 1584, 1583
6647, 1565, 1566, 1585, 1584
6648, 1566, 1567, 1586, 1585
6649, 1567, 1568, 1587, 1586
6650, 1568, 1569, 1588, 1587
6651, 1569, 1570, 1589, 1588
6652, 1570, 1571, 1590, 1589
6653, 1571, 1572, 1591, 1590
6654, 1572, 1573, 1592, 1591
6655, 1573, 1574, 1593, 1592
6656, 1574, 1575, 1594, 1593
6657, 1575, 1576, 1595, 1594
6658, 1576, 1577, 1596, 1595
6659, 1577, 1578, 1597, 1596
6660, 1578, 1579, 1598, 1597
6661, 1579, 1580, 1599, 1598
6662, 1580, 1581, 1600, 1599
6663, 1581,  184,  185, 1600
6664, 253, 1582, 1601, 252
6665, 1582, 1583, 1602, 1601
6666, 1583, 1584, 1603, 1602
6667, 1584, 1585, 1604, 1603
6668, 1585, 1586, 1605, 1604
6669, 1586, 1587, 1606, 1605
6670, 1587, 1588, 1607, 1606
6671, 1588, 1589, 1608, 1607
6672, 1589, 1590, 1609, 1608
6673, 1590, 1591, 1610, 1609
6674, 1591, 1592, 1611, 1610
6675, 1592, 1593, 1612, 1611
6676, 1593, 1594, 1613, 1612
6677, 1594, 1595, 1614, 1613
6678, 1595, 1596, 1615, 1614
6679, 1596, 1597, 1616, 1615
6680, 1597, 1598, 1617, 1616
6681, 1598, 1599, 1618, 1617
6682, 1599, 1600, 1619, 1618
6683, 1600,  185,  186, 1619
6684, 252, 1601, 1620, 251
6685, 1601, 1602, 1621, 1620
6686, 1602, 1603, 1622, 1621
6687, 1603, 1604, 1623, 1622
6688, 1604, 1605, 1624, 1623
6689, 1605, 1606, 1625, 1624
6690, 1606, 1607, 1626, 1625
6691, 1607, 1608, 1627, 1626
6692, 1608, 1609, 1628, 1627
6693, 1609, 1610, 1629, 1628
6694, 1610, 1611, 1630, 1629
6695, 1611, 1612, 1631, 1630
6696, 1612, 1613, 1632, 1631
6697, 1613, 1614, 1633, 1632
6698, 1614, 1615, 1634, 1633
6699, 1615, 1616, 1635, 1634
6700, 1616, 1617, 1636, 1635
6701, 1617, 1618, 1637, 1636
6702, 1618, 1619, 1638, 1637
6703, 1619,  186,  187, 1638
6704, 251, 1620, 1639, 250
6705, 1620, 1621, 1640, 1639
6706, 1621, 1622, 1641, 1640
6707, 1622, 1623, 1642, 1641
6708, 1623, 1624, 1643, 1642
6709, 1624, 1625, 1644, 1643
6710, 1625, 1626, 1645, 1644
6711, 1626, 1627, 1646, 1645
6712, 1627, 1628, 1647, 1646
6713, 1628, 1629, 1648, 1647
6714, 1629, 1630, 1649, 1648
6715, 1630, 1631, 1650, 1649
6716, 1631, 1632, 1651, 1650
6717, 1632, 1633, 1652, 1651
6718, 1633, 1634, 1653, 1652
6719, 1634, 1635, 1654, 1653
6720, 1635, 1636, 1655, 1654
6721, 1636, 1637, 1656, 1655
6722, 1637, 1638, 1657, 1656
6723, 1638,  187,  188, 1657
6724, 250, 1639, 1658, 249
6725, 1639, 1640, 1659, 1658
6726, 1640, 1641, 1660, 1659
6727, 1641, 1642, 1661, 1660
6728, 1642, 1643, 1662, 1661
6729, 1643, 1644, 1663, 1662
6730, 1644, 1645, 1664, 1663
6731, 1645, 1646, 1665, 1664
6732, 1646, 1647, 1666, 1665
6733, 1647, 1648, 1667, 1666
6734, 1648, 1649, 1668, 1667
6735, 1649, 1650, 1669, 1668
6736, 1650, 1651, 1670, 1669
6737, 1651, 1652, 1671, 1670
6738, 1652, 1653, 1672, 1671
6739, 1653, 1654, 1673, 1672
6740, 1654, 1655, 1674, 1673
6741, 1655, 1656, 1675, 1674
6742, 1656, 1657, 1676, 1675
6743, 1657,  188,  189, 1676
6744, 249, 1658, 1677, 248
6745, 1658, 1659, 1678, 1677
6746, 1659, 1660, 1679, 1678
6747, 1660, 1661, 1680, 1679
6748, 1661, 1662, 1681, 1680
6749, 1662, 1663, 1682, 1681
6750, 1663, 1664, 1683, 1682
6751, 1664, 1665, 1684, 1683
6752, 1665, 1666, 1685, 1684
6753, 1666, 1667, 1686, 1685
6754, 1667, 1668, 1687, 1686
6755, 1668, 1669, 1688, 1687
6756, 1669, 1670, 1689, 1688
6757, 1670, 1671, 1690, 1689
6758, 1671, 1672, 1691, 1690
6759, 1672, 1673, 1692, 1691
6760, 1673, 1674, 1693, 1692
6761, 1674, 1675, 1694, 1693
6762, 1675, 1676, 1695, 1694
6763, 1676,  189,  190, 1695
6764, 248, 1677, 1696, 247
6765, 1677, 1678, 1697, 1696
6766, 1678, 1679, 1698, 1697
6767, 1679, 1680, 1699, 1698
6768, 1680, 1681, 1700, 1699
6769, 1681, 1682, 1701, 1700
6770, 1682, 1683, 1702, 1701
6771, 1683, 1684, 1703, 1702
6772, 1684, 1685, 1704, 1703
6773, 1685, 1686, 1705, 1704
6774, 1686, 1687, 1706, 1705
6775, 1687, 1688, 1707, 1706
6776, 1688, 1689, 1708, 1707
6777, 1689, 1690, 1709, 1708
6778, 1690, 1691, 1710, 1709
6779, 1691, 1692, 1711, 1710
6780, 1692, 1693, 1712, 1711
6781, 1693, 1694, 1713, 1712
6782, 1694, 1695, 1714, 1713
6783, 1695,  190,  191, 1714
6784, 247, 1696, 1715, 246
6785, 1696, 1697, 1716, 1715
6786, 1697, 1698, 1717, 1716
6787, 1698, 1699, 1718, 1717
6788, 1699, 1700, 1719, 1718
6789, 1700, 1701, 1720, 1719
6790, 1701, 1702, 1721, 1720
6791, 1702, 1703, 1722, 1721
6792, 1703, 1704, 1723, 1722
6793, 1704, 1705, 1724, 1723
6794, 1705, 1706, 1725, 1724
6795, 1706, 1707, 1726, 1725
6796, 1707, 1708, 1727, 1726
6797, 1708, 1709, 1728, 1727
6798, 1709, 1710, 1729, 1728
6799, 1710, 1711, 1730, 1729
6800, 1711, 1712, 1731, 1730
6801, 1712, 1713, 1732, 1731
6802, 1713, 1714, 1733, 1732
6803, 1714,  191,  192, 1733
6804, 246, 1715, 1734, 245
6805, 1715, 1716, 1735, 1734
6806, 1716, 1717, 1736, 1735
6807, 1717, 1718, 1737, 1736
6808, 1718, 1719, 1738, 1737
6809, 1719, 1720, 1739, 1738
6810, 1720, 1721, 1740, 1739
6811, 1721, 1722, 1741, 1740
6812, 1722, 1723, 1742, 1741
6813, 1723, 1724, 1743, 1742
6814, 1724, 1725, 1744, 1743
6815, 1725, 1726, 1745, 1744
6816, 1726, 1727, 1746, 1745
6817, 1727, 1728, 1747, 1746
6818, 1728, 1729, 1748, 1747
6819, 1729, 1730, 1749, 1748
6820, 1730, 1731, 1750, 1749
6821, 1731, 1732, 1751, 1750
6822, 1732, 1733, 1752, 1751
6823, 1733,  192,  193, 1752
6824, 245, 1734, 1753, 244
6825, 1734, 1735, 1754, 1753
6826, 1735, 1736, 1755, 1754
6827, 1736, 1737, 1756, 1755
6828, 1737, 1738, 1757, 1756
6829, 1738, 1739, 1758, 1757
6830, 1739, 1740, 1759, 1758
6831, 1740, 1741, 1760, 1759
6832, 1741, 1742, 1761, 1760
6833, 1742, 1743, 1762, 1761
6834, 1743, 1744, 1763, 1762
6835, 1744, 1745, 1764, 1763
6836, 1745, 1746, 1765, 1764
6837, 1746, 1747, 1766, 1765
6838, 1747, 1748, 1767, 1766
6839, 1748, 1749, 1768, 1767
6840, 1749, 1750, 1769, 1768
6841, 1750, 1751, 1770, 1769
6842, 1751, 1752, 1771, 1770
6843, 1752,  193,  194, 1771
6844, 244, 1753, 1772, 243
6845, 1753, 1754, 1773, 1772
6846, 1754, 1755, 1774, 1773
6847, 1755, 1756, 1775, 1774
6848, 1756, 1757, 1776, 1775
6849, 1757, 1758, 1777, 1776
6850, 1758, 1759, 1778, 1777
6851, 1759, 1760, 1779, 1778
6852, 1760, 1761, 1780, 1779
6853, 1761, 1762, 1781, 1780
6854, 1762, 1763, 1782, 1781
6855, 1763, 1764, 1783, 1782
6856, 1764, 1765, 1784, 1783
6857, 1765, 1766, 1785, 1784
6858, 1766, 1767, 1786, 1785
6859, 1767, 1768, 1787, 1786
6860, 1768, 1769, 1788, 1787
6861, 1769, 1770, 1789, 1788
6862, 1770, 1771, 1790, 1789
6863, 1771,  194,  195, 1790
6864, 243, 1772, 1791, 242
6865, 1772, 1773, 1792, 1791
6866, 1773, 1774, 1793, 1792
6867, 1774, 1775, 1794, 1793
6868, 1775, 1776, 1795, 1794
6869, 1776, 1777, 1796, 1795
6870, 1777, 1778, 1797, 1796
6871, 1778, 1779, 1798, 1797
6872, 1779, 1780, 1799, 1798
6873, 1780, 1781, 1800, 1799
6874, 1781, 1782, 1801, 1800
6875, 1782, 1783, 1802, 1801
6876, 1783, 1784, 1803, 1802
6877, 1784, 1785, 1804, 1803
6878, 1785, 1786, 1805, 1804
6879, 1786, 1787, 1806, 1805
6880, 1787, 1788, 1807, 1806
6881, 1788, 1789, 1808, 1807
6882, 1789, 1790, 1809, 1808
6883, 1790,  195,  196, 1809
6884, 242, 1791, 1810, 241
6885, 1791, 1792, 1811, 1810
6886, 1792, 1793, 1812, 1811
6887, 1793, 1794, 1813, 1812
6888, 1794, 1795, 1814, 1813
6889, 1795, 1796, 1815, 1814
6890, 1796, 1797, 1816, 1815
6891, 1797, 1798, 1817, 1816
6892, 1798, 1799, 1818, 1817
6893, 1799, 1800, 1819, 1818
6894, 1800, 1801, 1820, 1819
6895, 1801, 1802, 1821, 1820
6896, 1802, 1803, 1822, 1821
6897, 1803, 1804, 1823, 1822
6898, 1804, 1805, 1824, 1823
6899, 1805, 1806, 1825, 1824
6900, 1806, 1807, 1826, 1825
6901, 1807, 1808, 1827, 1826
6902, 1808, 1809, 1828, 1827
6903, 1809,  196,  197, 1828
6904, 241, 1810, 1829, 240
6905, 1810, 1811, 1830, 1829
6906, 1811, 1812, 1831, 1830
6907, 1812, 1813, 1832, 1831
6908, 1813, 1814, 1833, 1832
6909, 1814, 1815, 1834, 1833
6910, 1815, 1816, 1835, 1834
6911, 1816, 1817, 1836, 1835
6912, 1817, 1818, 1837, 1836
6913, 1818, 1819, 1838, 1837
6914, 1819, 1820, 1839, 1838
6915, 1820, 1821, 1840, 1839
6916, 1821, 1822, 1841, 1840
6917, 1822, 1823, 1842, 1841
6918, 1823, 1824, 1843, 1842
6919, 1824, 1825, 1844, 1843
6920, 1825, 1826, 1845, 1844
6921, 1826, 1827, 1846, 1845
6922, 1827, 1828, 1847, 1846
6923, 1828,  197,  198, 1847
6924, 240, 1829, 1848, 239
6925, 1829, 1830, 1849, 1848
6926, 1830, 1831, 1850, 1849
6927, 1831, 1832, 1851, 1850
6928, 1832, 1833, 1852, 1851
6929, 1833, 1834, 1853, 1852
6930, 1834, 1835, 1854, 1853
6931, 1835, 1836, 1855, 1854
6932, 1836, 1837, 1856, 1855
6933, 1837, 1838, 1857, 1856
6934, 1838, 1839, 1858, 1857
6935, 1839, 1840, 1859, 1858
6936, 1840, 1841, 1860, 1859
6937, 1841, 1842, 1861, 1860
6938, 1842, 1843, 1862, 1861
6939, 1843, 1844, 1863, 1862
6940, 1844, 1845, 1864, 1863
6941, 1845, 1846, 1865, 1864
6942, 1846, 1847, 1866, 1865
6943, 1847,  198,  199, 1866
6944, 239, 1848, 1867, 238
6945, 1848, 1849, 1868, 1867
6946, 1849, 1850, 1869, 1868
6947, 1850, 1851, 1870, 1869
6948, 1851, 1852, 1871, 1870
6949, 1852, 1853, 1872, 1871
6950, 1853, 1854, 1873, 1872
6951, 1854, 1855, 1874, 1873
6952, 1855, 1856, 1875, 1874
6953, 1856, 1857, 1876, 1875
6954, 1857, 1858, 1877, 1876
6955, 1858, 1859, 1878, 1877
6956, 1859, 1860, 1879, 1878
6957, 1860, 1861, 1880, 1879
6958, 1861, 1862, 1881, 1880
6959, 1862, 1863, 1882, 1881
6960, 1863, 1864, 1883, 1882
6961, 1864, 1865, 1884, 1883
6962, 1865, 1866, 1885, 1884
6963, 1866,  199,  200, 1885
6964, 238, 1867, 1886, 237
6965, 1867, 1868, 1887, 1886
6966, 1868, 1869, 1888, 1887
6967, 1869, 1870, 1889, 1888
6968, 1870, 1871, 1890, 1889
6969, 1871, 1872, 1891, 1890
6970, 1872, 1873, 1892, 1891
6971, 1873, 1874, 1893, 1892
6972, 1874, 1875, 1894, 1893
6973, 1875, 1876, 1895, 1894
6974, 1876, 1877, 1896, 1895
6975, 1877, 1878, 1897, 1896
6976, 1878, 1879, 1898, 1897
6977, 1879, 1880, 1899, 1898
6978, 1880, 1881, 1900, 1899
6979, 1881, 1882, 1901, 1900
6980, 1882, 1883, 1902, 1901
6981, 1883, 1884, 1903, 1902
6982, 1884, 1885, 1904, 1903
6983, 1885,  200,  201, 1904
6984, 237, 1886, 1905, 236
6985, 1886, 1887, 1906, 1905
6986, 1887, 1888, 1907, 1906
6987, 1888, 1889, 1908, 1907
6988, 1889, 1890, 1909, 1908
6989, 1890, 1891, 1910, 1909
6990, 1891, 1892, 1911, 1910
6991, 1892, 1893, 1912, 1911
6992, 1893, 1894, 1913, 1912
6993, 1894, 1895, 1914, 1913
6994, 1895, 1896, 1915, 1914
6995, 1896, 1897, 1916, 1915
6996, 1897, 1898, 1917, 1916
6997, 1898, 1899, 1918, 1917
6998, 1899, 1900, 1919, 1918
6999, 1900, 1901, 1920, 1919
7000, 1901, 1902, 1921, 1920
7001, 1902, 1903, 1922, 1921
7002, 1903, 1904, 1923, 1922
7003, 1904,  201,  202, 1923
7004, 236, 1905, 1924, 235
7005, 1905, 1906, 1925, 1924
7006, 1906, 1907, 1926, 1925
7007, 1907, 1908, 1927, 1926
7008, 1908, 1909, 1928, 1927
7009, 1909, 1910, 1929, 1928
7010, 1910, 1911, 1930, 1929
7011, 1911, 1912, 1931, 1930
7012, 1912, 1913, 1932, 1931
7013, 1913, 1914, 1933, 1932
7014, 1914, 1915, 1934, 1933
7015, 1915, 1916, 1935, 1934
7016, 1916, 1917, 1936, 1935
7017, 1917, 1918, 1937, 1936
7018, 1918, 1919, 1938, 1937
7019, 1919, 1920, 1939, 1938
7020, 1920, 1921, 1940, 1939
7021, 1921, 1922, 1941, 1940
7022, 1922, 1923, 1942, 1941
7023, 1923,  202,  203, 1942
7024, 235, 1924, 1943, 234
7025, 1924, 1925, 1944, 1943
7026, 1925, 1926, 1945, 1944
7027, 1926, 1927, 1946, 1945
7028, 1927, 1928, 1947, 1946
7029, 1928, 1929, 1948, 1947
7030, 1929, 1930, 1949, 1948
7031, 1930, 1931, 1950, 1949
7032, 1931, 1932, 1951, 1950
7033, 1932, 1933, 1952, 1951
7034, 1933, 1934, 1953, 1952
7035, 1934, 1935, 1954, 1953
7036, 1935, 1936, 1955, 1954
7037, 1936, 1937, 1956, 1955
7038, 1937, 1938, 1957, 1956
7039, 1938, 1939, 1958, 1957
7040, 1939, 1940, 1959, 1958
7041, 1940, 1941, 1960, 1959
7042, 1941, 1942, 1961, 1960
7043, 1942,  203,  204, 1961
7044, 234, 1943, 1962, 233
7045, 1943, 1944, 1963, 1962
7046, 1944, 1945, 1964, 1963
7047, 1945, 1946, 1965, 1964
7048, 1946, 1947, 1966, 1965
7049, 1947, 1948, 1967, 1966
7050, 1948, 1949, 1968, 1967
7051, 1949, 1950, 1969, 1968
7052, 1950, 1951, 1970, 1969
7053, 1951, 1952, 1971, 1970
7054, 1952, 1953, 1972, 1971
7055, 1953, 1954, 1973, 1972
7056, 1954, 1955, 1974, 1973
7057, 1955, 1956, 1975, 1974
7058, 1956, 1957, 1976, 1975
7059, 1957, 1958, 1977, 1976
7060, 1958, 1959, 1978, 1977
7061, 1959, 1960, 1979, 1978
7062, 1960, 1961, 1980, 1979
7063, 1961,  204,  205, 1980
7064, 233, 1962, 1981, 232
7065, 1962, 1963, 1982, 1981
7066, 1963, 1964, 1983, 1982
7067, 1964, 1965, 1984, 1983
7068, 1965, 1966, 1985, 1984
7069, 1966, 1967, 1986, 1985
7070, 1967, 1968, 1987, 1986
7071, 1968, 1969, 1988, 1987
7072, 1969, 1970, 1989, 1988
7073, 1970, 1971, 1990, 1989
7074, 1971, 1972, 1991, 1990
7075, 1972, 1973, 1992, 1991
7076, 1973, 1974, 1993, 1992
7077, 1974, 1975, 1994, 1993
7078, 1975, 1976, 1995, 1994
7079, 1976, 1977, 1996, 1995
7080, 1977, 1978, 1997, 1996
7081, 1978, 1979, 1998, 1997
7082, 1979, 1980, 1999, 1998
7083, 1980,  205,  206, 1999
7084, 232, 1981, 2000, 231
7085, 1981, 1982, 2001, 2000
7086, 1982, 1983, 2002, 2001
7087, 1983, 1984, 2003, 2002
7088, 1984, 1985, 2004, 2003
7089, 1985, 1986, 2005, 2004
7090, 1986, 1987, 2006, 2005
7091, 1987, 1988, 2007, 2006
7092, 1988, 1989, 2008, 2007
7093, 1989, 1990, 2009, 2008
7094, 1990, 1991, 2010, 2009
7095, 1991, 1992, 2011, 2010
7096, 1992, 1993, 2012, 2011
7097, 1993, 1994, 2013, 2012
7098, 1994, 1995, 2014, 2013
7099, 1995, 1996, 2015, 2014
7100, 1996, 1997, 2016, 2015
7101, 1997, 1998, 2017, 2016
7102, 1998, 1999, 2018, 2017
7103, 1999,  206,  207, 2018
7104, 231, 2000, 2019, 230
7105, 2000, 2001, 2020, 2019
7106, 2001, 2002, 2021, 2020
7107, 2002, 2003, 2022, 2021
7108, 2003, 2004, 2023, 2022
7109, 2004, 2005, 2024, 2023
7110, 2005, 2006, 2025, 2024
7111, 2006, 2007, 2026, 2025
7112, 2007, 2008, 2027, 2026
7113, 2008, 2009, 2028, 2027
7114, 2009, 2010, 2029, 2028
7115, 2010, 2011, 2030, 2029
7116, 2011, 2012, 2031, 2030
7117, 2012, 2013, 2032, 2031
7118, 2013, 2014, 2033, 2032
7119, 2014, 2015, 2034, 2033
7120, 2015, 2016, 2035, 2034
7121, 2016, 2017, 2036, 2035
7122, 2017, 2018, 2037, 2036
7123, 2018,  207,  208, 2037
7124, 230, 2019, 2038, 229
7125, 2019, 2020, 2039, 2038
7126, 2020, 2021, 2040, 2039
7127, 2021, 2022, 2041, 2040
7128, 2022, 2023, 2042, 2041
7129, 2023, 2024, 2043, 2042
7130, 2024, 2025, 2044, 2043
7131, 2025, 2026, 2045, 2044
7132, 2026, 2027, 2046, 2045
7133, 2027, 2028, 2047, 2046
7134, 2028, 2029, 2048, 2047
7135, 2029, 2030, 2049, 2048
7136, 2030, 2031, 2050, 2049
7137, 2031, 2032, 2051, 2050
7138, 2032, 2033, 2052, 2051
7139, 2033, 2034, 2053, 2052
7140, 2034, 2035, 2054, 2053
7141, 2035, 2036, 2055, 2054
7142, 2036, 2037, 2056, 2055
7143, 2037,  208,  209, 2056
7144, 229, 2038,  228, 13
7145, 2038, 2039,  227, 228
7146, 2039, 2040,  226, 227
7147, 2040, 2041,  225, 226
7148, 2041, 2042,  224, 225
7149, 2042, 2043,  223, 224
7150, 2043, 2044,  222, 223
7151, 2044, 2045,  221, 222
7152, 2045, 2046,  220, 221
7153, 2046, 2047,  219, 220
7154, 2047, 2048,  218, 219
7155, 2048, 2049,  217, 218
7156, 2049, 2050,  216, 217
7157, 2050, 2051,  215, 216
7158, 2051, 2052,  214, 215
7159, 2052, 2053,  213, 214
7160, 2053, 2054,  212, 213
7161, 2054, 2055,  211, 212
7162, 2055, 2056,  210, 211
7163, 2056,  209,   12, 210
7164, 270,  271, 2067, 2059
7165, 2060, 2064, 2068, 2058
7166, 279, 2069, 2066, 1
7167, 275, 2057, 2061, 274
7168, 276, 2071, 2057, 275
7169, 2070, 2062,  272, 273
7170, 2058,  268,  269, 2060
7171, 268, 2058,  281, 14
7172, 2060, 2059, 2075, 2064
7173, 2071,  276,   15, 277
7174, 277, 2065, 2057, 2071
7175, 280,  281, 2058, 2068
7176, 2060,  269,  270, 2059
7177, 2074, 2076, 2073, 2063
7178, 2066, 2069, 2063, 2065
7179, 2065,  277,  278, 2066
7180, 274, 2061, 2070, 273
7181, 2073, 2072, 2065, 2063
7182, 2067, 2062, 2076, 2074
7183, 2069, 2068, 2064, 2063
7184, 2057, 2065, 2072, 2061
7185, 2066,  278,    2, 1
7186, 2067,  271,  272, 2062
7187, 2068, 2069,  279, 280
7188, 2070, 2061, 2072, 2073
7189, 2062, 2070, 2073, 2076
7190, 2075, 2074, 2063, 2064
7191, 2067, 2074, 2075, 2059
7192, 282,  283, 2347, 2077
7193, 2389, 2282, 2289, 2212
7194, 2078,  286,  287, 2346
7195, 287,  288, 2079, 2346
7196, 2345, 2080,  289, 290
7197, 286, 2078, 2136, 285
7198, 2380, 2346, 2079, 2138
7199, 2080, 2079,  288, 289
7200, 2344, 2081, 2205, 2130
7201, 2139, 2343, 2082, 2204
7202, 294,  295, 2083, 2082
7203, 296,  297, 2084, 2141
7204, 2085, 2342,  298, 299
7205, 299,  300, 2341, 2085
7206, 2086, 2340,  301, 302
7207, 2087, 2339,  303, 304
7208, 304,  305, 2088, 2087
7209, 2089, 2146,  308, 309
7210, 2090, 2089,  309, 310
7211, 2091, 2090,  310, 311
7212, 2092, 2132,  312, 313
7213, 313,  314, 2093, 2092
7214, 2149, 2094,  316, 317
7215, 317,  318, 2095, 2149
7216, 2374, 2337, 2096, 2375
7217, 320,  321, 2336, 2096
7218, 2097, 2335,  322, 323
7219, 2098, 2334,  324, 325
7220, 2378, 2333, 2099, 2153
7221, 2412, 2332, 2100, 2154
7222, 2101, 2100,  329, 330
7223, 2101,  330,  331, 2134
7224, 2155, 2102,  332, 333
7225, 2103,  334,  335, 2156
7226, 2104,  336,  337, 2157
7227, 337,  338, 2105, 2157
7228, 2379, 2331, 2106, 2182
7229, 340,  341, 2330, 2106
7230, 2181, 2182, 2329, 2107
7231, 2108, 2328,  344, 345
7232, 345,  346, 2109, 2108
7233, 347,  348, 2110, 2161
7234, 349, 2327, 2110, 348
7235, 350,  351, 2326, 2111
7236, 2112, 2176, 2135, 2325
7237, 2113, 2162, 2370, 2324
7238, 355,  356, 2114, 2113
7239, 357,  358, 2115, 2163
7240, 2322, 2117, 2165, 2358
7241, 2126, 2128,  363, 364
7242, 2118, 2321,  365, 366
7243, 2126, 2321, 2129, 2211
7244, 369,  370, 2120, 2319
7245, 372,  373, 2317, 2121
7246, 2121, 2318,  371, 372
7247, 374,  375, 2170, 2122
7248, 2122, 2167, 2354, 2317
7249, 2123, 2170,  375, 376
7250, 377,  378, 2124, 2352
7251, 2315, 2125, 2316, 2173
7252, 2352, 2173, 2206, 2123
7253, 381, 2125,  380, 16
7254, 2357, 2320, 2119, 2166
7255, 359,  360, 2116, 2323
7256, 11,  170, 2307, 384
7257, 161,   3,  26, 2299
7258, 2138, 2209, 2137, 2380
7259, 2344, 2130, 2368, 2345
7260, 2131, 2367, 2341, 2340
7261, 311,  312, 2132, 2091
7262, 2336, 2335, 2376, 2133
7263, 2102, 2134,  331, 332
7264, 2326, 2325, 2135, 2371
7265, 363, 2128, 2117, 362
7266, 2127, 2348,  278, 277
7267, 15,  282, 2077, 2171
7268, 2127, 2171, 2212, 2289
7269, 2347,  283,  284, 2350
7270, 291,  292, 2081, 2344
7271, 285, 2136, 2350, 284
7272, 2368, 2207, 2138, 2079
7273, 293,  294, 2082, 2343
7274, 2083,  295,  296, 2141
7275, 2343, 2081,  292, 293
7276, 2081, 2343, 2139, 2205
7277, 2084,  297,  298, 2342
7278, 2082, 2083, 2140, 2204
7279, 2204, 2140, 2203, 2219
7280, 2217, 2205, 2218, 2265
7281, 2140, 2083, 2141, 2203
7282, 2142, 2202, 2084, 2342
7283, 2367, 2201, 2085, 2341
7284, 2088,  305,  306, 2338
7285, 2339, 2086,  302, 303
7286, 2086, 2339, 2143, 2366
7287, 2087, 2088, 2144, 2365
7288, 2365, 2199, 2366, 2143
7289, 2390, 2200, 2406, 2408
7290, 2338, 2145, 2364, 2198
7291, 2146, 2145,  307, 308
7292, 2093,  314,  315, 2148
7293, 2090, 2091, 2362, 2174
7294, 2091, 2132, 2361, 2362
7295, 2093, 2147, 2394, 2092
7296, 2095,  318,  319, 2337
7297, 319,  320, 2096, 2337
7298, 2195, 2148, 2194, 2225
7299, 2094, 2148,  315, 316
7300, 2195, 2225, 2404, 2224
7301, 2148, 2094, 2149, 2194
7302, 2149, 2095, 2150, 2193
7303, 2375, 2133, 2410, 2191
7304, 326,  327, 2099, 2333
7305, 2334, 2097,  323, 324
7306, 2097, 2334, 2377, 2151
7307, 328,  329, 2100, 2332
7308, 2333, 2098,  325, 326
7309, 2098, 2333, 2378, 2152
7310, 2189, 2230, 2229, 2411
7311, 2378, 2153, 2412, 2188
7312, 334, 2103, 2155, 333
7313, 2187, 2101, 2134, 2231
7314, 336, 2104, 2156, 335
7315, 2105,  338,  339, 2331
7316, 339,  340, 2106, 2331
7317, 2185, 2156, 2184, 2233
7318, 2232, 2185, 2233, 2383
7319, 342,  343, 2107, 2329
7320, 2156, 2104, 2157, 2184
7321, 2157, 2105, 2158, 2183
7322, 2106, 2330, 2329, 2182
7323, 2109,  346,  347, 2161
7324, 2328, 2107,  343, 344
7325, 2159, 2107, 2328, 2160
7326, 350, 2111, 2327, 349
7327, 2160, 2179, 2180, 2159
7328, 2237, 2418, 2402, 2180
7329, 352,  353, 2112, 2325
7330, 2110, 2327, 2111, 2372
7331, 354,  355, 2113, 2324
7332, 2371, 2177, 2111, 2326
7333, 2114,  356,  357, 2163
7334, 2324, 2112,  353, 354
7335, 358,  359, 2323, 2115
7336, 2369, 2114, 2163, 2360
7337, 360,  361, 2322, 2116
7338, 2241, 2162, 2369, 2392
7339, 361,  362, 2117, 2322
7340, 2370, 2176, 2112, 2324
7341, 364,  365, 2321, 2126
7342, 2359, 2164, 2242, 2175
7343, 2358, 2164, 2116, 2322
7344, 2165, 2117, 2128, 2210
7345, 366,  367, 2320, 2118
7346, 2210, 2128, 2126, 2211
7347, 367,  368, 2119, 2320
7348, 368,  369, 2319, 2119
7349, 370,  371, 2318, 2120
7350, 2215, 2166, 2172, 2246
7351, 2166, 2215, 2398, 2357
7352, 373,  374, 2122, 2317
7353, 2355, 2318, 2121, 2169
7354, 2122, 2170, 2353, 2167
7355, 376,  377, 2352, 2123
7356, 2123, 2206, 2353, 2170
7357, 378,  379, 2315, 2124
7358, 379,  380, 2125, 2315
7359, 2125,  381,  382, 2316
7360, 277,   15, 2171, 2127
7361, 2356, 2319, 2120, 2168
7362, 2168, 2172, 2166, 2356
7363, 2209, 2414, 2244, 2248
7364, 2202, 2203, 2141, 2084
7365, 2338, 2198, 2144, 2088
7366, 2194, 2149, 2193, 2226
7367, 2378, 2188, 2230, 2189
7368, 2184, 2157, 2183, 2234
7369, 2179, 2161, 2373, 2382
7370, 2078, 2351, 2350, 2136
7371, 2078, 2346, 2380, 2137
7372, 2384, 2130, 2205, 2217
7373, 2079, 2080, 2345, 2368
7374, 2205, 2139, 2204, 2218
7375, 2202, 2142, 2201, 2220
7376, 2367, 2131, 2200, 2390
7377, 2366, 2199, 2200, 2131
7378, 2145, 2338,  306, 307
7379, 2364, 2145, 2146, 2197
7380, 2363, 2197, 2146, 2089
7381, 2090, 2174, 2363, 2089
7382, 2428, 2147, 2195, 2427
7383, 2147, 2093, 2148, 2195
7384, 2193, 2150, 2192, 2227
7385, 2192, 2399, 2191, 2228
7386, 2095, 2337, 2374, 2150
7387, 2191, 2410, 2190, 2228
7388, 2376, 2190, 2410, 2133
7389, 2332, 2099,  327, 328
7390, 2187, 2188, 2412, 2154
7391, 2099, 2332, 2412, 2153
7392, 2231, 2134, 2186, 2258
7393, 2154, 2100, 2101, 2187
7394, 2186, 2155, 2185, 2232
7395, 2134, 2102, 2155, 2186
7396, 2155, 2103, 2156, 2185
7397, 2385, 2158, 2379, 2182
7398, 2105, 2331, 2379, 2158
7399, 2159, 2180, 2402, 2236
7400, 2181, 2107, 2159, 2236
7401, 2111, 2177, 2178, 2372
7402, 2391, 2392, 2369, 2360
7403, 2115, 2175, 2360, 2163
7404, 2242, 2164, 2358, 2216
7405, 2354, 2169, 2121, 2317
7406, 2169, 2387, 2168, 2355
7407, 2247, 2208, 2353, 2206
7408, 2353, 2208, 2387, 2167
7409, 2387, 2208, 2172, 2168
7410, 2173, 2352, 2124, 2315
7411, 2173, 2316, 2214, 2206
7412, 2209, 2248, 2213, 2137
7413, 2263, 2281, 2293, 2250
7414, 382,  383, 2214, 2316
7415, 2427, 2195, 2224, 2429
7416, 2429, 2224, 2264, 2395
7417, 2416, 2251, 2261, 2432
7418, 2358, 2165, 2210, 2216
7419, 2266, 2211, 2215, 2246
7420, 2382, 2237, 2180, 2179
7421, 2176, 2386, 2240, 2135
7422, 2386, 2176, 2241, 2243
7423, 2235, 2259, 2234, 2183
7424, 2373, 2372, 2178, 2396
7425, 2423, 2181, 2236, 2424
7426, 2423, 2385, 2182, 2181
7427, 2233, 2184, 2234, 2269
7428, 2258, 2186, 2232, 2383
7429, 2187, 2231, 2426, 2188
7430, 2400, 2401, 2270, 2226
7431, 2192, 2228, 2256, 2227
7432, 2411, 2151, 2377, 2189
7433, 2226, 2193, 2227, 2400
7434, 2376, 2151, 2411, 2190
7435, 2225, 2194, 2226, 2270
7436, 2150, 2374, 2399, 2192
7437, 2394, 2393, 2362, 2361
7438, 2222, 2397, 2223, 2254
7439, 2174, 2362, 2393, 2196
7440, 2220, 2390, 2408, 2252
7441, 2220, 2201, 2367, 2390
7442, 2388, 2202, 2220, 2252
7443, 2218, 2204, 2219, 2253
7444, 2085, 2201, 2142, 2342
7445, 2202, 2388, 2219, 2203
7446, 2247, 2206, 2214, 2349
7447, 2299, 2289, 2282, 2300
7448, 2351, 2212, 2171, 2077
7449, 2211, 2266, 2263, 2210
7450, 2212, 2351, 2213, 2389
7451, 2384, 2217, 2414, 2207
7452, 2249,  383,  384, 2307
7453, 2246, 2172, 2208, 2247
7454, 2263, 2250, 2216, 2210
7455, 2251, 2386, 2243, 2403
7456, 2265, 2218, 2253, 2279
7457, 2253, 2413, 2272, 2279
7458, 2200, 2199, 2221, 2406
7459, 2413, 2253, 2219, 2388
7460, 2198, 2222, 2221, 2199
7461, 2413, 2388, 2252, 2272
7462, 2397, 2364, 2197, 2223
7463, 2222, 2254, 2417, 2221
7464, 2174, 2245, 2197, 2363
7465, 2254, 2433, 2284, 2417
7466, 2255, 2224, 2404, 2405
7467, 2408, 2422, 2273, 2252
7468, 2264, 2280, 2292, 2284
7469, 2401, 2290, 2405, 2270
7470, 2420, 2400, 2227, 2256
7471, 2152, 2378, 2189, 2377
7472, 2229, 2257, 2256, 2228
7473, 2229, 2230, 2434, 2435
7474, 2257, 2268, 2277, 2421
7475, 2385, 2235, 2183, 2158
7476, 2269, 2278, 2383, 2233
7477, 2237, 2382, 2238, 2419
7478, 2177, 2239, 2396, 2178
7479, 2135, 2240, 2177, 2371
7480, 2162, 2241, 2176, 2370
7481, 2416, 2432, 2419, 2239
7482, 2239, 2177, 2240, 2416
7483, 2403, 2243, 2262, 2271
7484, 2250, 2262, 2242, 2216
7485, 2391, 2242, 2262, 2392
7486, 2391, 2360, 2175, 2242
7487, 2243, 2241, 2392, 2262
7488, 2217, 2265, 2244, 2414
7489, 2223, 2197, 2245, 2409
7490, 2245, 2174, 2196, 2395
7491, 2246, 2247, 2349, 2281
7492, 2214,  383, 2249, 2349
7493, 2249, 2283, 2281, 2349
7494, 2267, 2279, 2381, 2282
7495, 2407, 2389, 2213, 2248
7496, 2307, 2302, 2283, 2249
7497, 2293, 2294, 2286, 2271
7498, 2403, 2271, 2286, 2274
7499, 2386, 2251, 2416, 2240
7500, 2272, 2287, 2381, 2279
7501, 2395, 2264, 2409, 2245
7502, 2272, 2252, 2273, 2287
7503, 2280, 2264, 2224, 2255
7504, 2421, 2277, 2290, 2401
7505, 2278, 2268, 2258, 2383
7506, 2234, 2259, 2276, 2269
7507, 2269, 2415, 2291, 2278
7508, 2236, 2431, 2425, 2424
7509, 2431, 2236, 2402, 2430
7510, 2260, 2276, 2431, 2430
7511, 2432, 2261, 2260, 2418
7512, 2271, 2262, 2250, 2293
7513, 2254, 2223, 2409, 2433
7514, 2433, 2409, 2264, 2284
7515, 2267, 2244, 2265, 2279
7516, 2248, 2244, 2267, 2407
7517, 2298, 2305, 2296, 2278
7518, 2296, 2285, 2290, 2277
7519, 2285, 2255, 2405, 2290
7520, 2273, 2292, 2301, 2287
7521, 2313, 2295, 2286, 2294
7522, 2274, 2261, 2251, 2403
7523, 2417, 2284, 2422, 2408
7524, 2273, 2422, 2284, 2292
7525, 2275, 2261, 2274, 2288
7526, 2276, 2260, 2261, 2275
7527, 2415, 2269, 2276, 2275
7528, 2280, 2255, 2285, 2304
7529, 2298, 2278, 2291, 2303
7530, 2246, 2281, 2263, 2266
7531, 2300, 2282, 2381, 2312
7532, 2282, 2389, 2407, 2267
7533, 2313, 2302,  169, 168
7534, 2311, 2301, 2304, 2310
7535, 2274, 2286, 2295, 2288
7536, 2308, 2297, 2288, 2295
7537, 2415, 2275, 2288, 2297
7538, 2415, 2297, 2303, 2291
7539, 26,   25, 2289, 2299
7540, 161, 2299, 2300, 162
7541, 2314, 2310, 2304, 2305
7542, 2303, 2306, 2309, 2298
7543, 2268, 2278, 2296, 2277
7544, 2285, 2296, 2305, 2304
7545, 2301, 2292, 2280, 2304
7546, 2283, 2294, 2293, 2281
7547, 2294, 2283, 2302, 2313
7548, 2313,  168, 2308, 2295
7549, 167, 2306, 2308, 168
7550, 2381, 2287, 2301, 2311
7551, 170,  169, 2302, 2307
7552, 2306, 2303, 2297, 2308
7553, 2306,  167,  166, 2309
7554, 2310, 2314,  165, 164
7555, 2311,  163, 2312, 2381
7556, 2314, 2309,  166, 165
7557, 2305, 2298, 2309, 2314
7558, 2311, 2310,  164, 163
7559, 2312,  163,  162, 2300
7560, 2321, 2118, 2398, 2129
7561, 2359, 2323, 2116, 2164
7562, 351,  352, 2325, 2326
7563, 2108, 2109, 2160, 2328
7564, 341,  342, 2329, 2330
7565, 2377, 2334, 2098, 2152
7566, 321,  322, 2335, 2336
7567, 2376, 2335, 2097, 2151
7568, 2336, 2133, 2375, 2096
7569, 2339, 2087, 2365, 2143
7570, 300,  301, 2340, 2341
7571, 2340, 2086, 2366, 2131
7572, 290,  291, 2344, 2345
7573, 2,  278, 2348, 25
7574, 2127, 2289,   25, 2348
7575, 2077, 2347, 2350, 2351
7576, 2169, 2354, 2167, 2387
7577, 2355, 2168, 2120, 2318
7578, 2356, 2166, 2119, 2319
7579, 2118, 2320, 2357, 2398
7580, 2359, 2175, 2115, 2323
7581, 2132, 2092, 2394, 2361
7582, 2368, 2130, 2384, 2207
7583, 2369, 2162, 2113, 2114
7584, 2110, 2372, 2373, 2161
7585, 2375, 2191, 2399, 2374
7586, 2109, 2161, 2179, 2160
7587, 2137, 2213, 2351, 2078
7588, 2382, 2373, 2396, 2238
7589, 2365, 2144, 2198, 2199
7590, 2394, 2147, 2428, 2393
7591, 2429, 2395, 2196, 2427
7592, 2396, 2239, 2419, 2238
7593, 2397, 2222, 2198, 2364
7594, 2215, 2211, 2129, 2398
7595, 2421, 2420, 2256, 2257
7596, 2404, 2225, 2270, 2405
7597, 2406, 2221, 2417, 2408
7598, 2209, 2138, 2207, 2414
7599, 2418, 2237, 2419, 2432
7600, 2401, 2400, 2420, 2421
7601, 2235, 2385, 2423, 2424
7602, 2424, 2425, 2259, 2235
7603, 2230, 2188, 2426, 2434
7604, 2428, 2427, 2196, 2393
7605, 2431, 2276, 2259, 2425
7606, 2430, 2402, 2418, 2260
7607, 2426, 2231, 2258, 2434
7608, 2268, 2435, 2434, 2258
7609, 2435, 2268, 2257, 2229
7610, 2228, 2190, 2411, 2229
7611, 2441, 2442, 2437, 2436
7612, 2436, 2448,  397, 2441
7613, 18,  386, 2444, 385
7614, 2445, 2440,  388, 389
7615, 2442, 2438, 2447, 2437
7616, 2436,  395,  396, 2448
7617, 2441,  397,  398, 2444
7618, 394,  395, 2436, 2437
7619, 393, 2447, 2438, 392
7620, 392, 2438, 2446, 391
7621, 390, 2439, 2445, 389
7622, 2443, 2444,  386, 387
7623, 385, 2444,  398, 17
7624, 2448,  396,   20, 397
7625, 394, 2437, 2447, 393
7626, 2439,  390,  391, 2446
7627, 2440,  387,   19, 388
7628, 2444, 2443, 2442, 2441
7629, 2445, 2443,  387, 2440
7630, 2442, 2443, 2446, 2438
7631, 2445, 2439, 2446, 2443
7632, 19,  399, 2449, 388
7633, 399,  400, 2450, 2449
7634, 400,  401, 2451, 2450
7635, 401,  402, 2452, 2451
7636, 402,  403, 2453, 2452
7637, 403,  404, 2454, 2453
7638, 404,  405, 2455, 2454
7639, 405,  406, 2456, 2455
7640, 406,  407, 2457, 2456
7641, 407,  408, 2458, 2457
7642, 408,  409, 2459, 2458
7643, 409,  410, 2460, 2459
7644, 410,  411, 2461, 2460
7645, 411,  412, 2462, 2461
7646, 412,  413, 2463, 2462
7647, 413,  414, 2464, 2463
7648, 414,  415, 2465, 2464
7649, 415,  416, 2466, 2465
7650, 416,  417, 2467, 2466
7651, 417,  418, 2468, 2467
7652, 418,  419, 2469, 2468
7653, 419,  420, 2470, 2469
7654, 420,  421, 2471, 2470
7655, 421,  422, 2472, 2471
7656, 422,  423, 2473, 2472
7657, 423,  424, 2474, 2473
7658, 424,  425, 2475, 2474
7659, 425,  426, 2476, 2475
7660, 426,  427, 2477, 2476
7661, 427,  428, 2478, 2477
7662, 428,  429, 2479, 2478
7663, 429,  430, 2480, 2479
7664, 430,  431, 2481, 2480
7665, 431,  432, 2482, 2481
7666, 432,  433, 2483, 2482
7667, 433,  434, 2484, 2483
7668, 434,  435, 2485, 2484
7669, 435,  436, 2486, 2485
7670, 436,  437, 2487, 2486
7671, 437,  438, 2488, 2487
7672, 438,  439, 2489, 2488
7673, 439,  440, 2490, 2489
7674, 440,  441, 2491, 2490
7675, 441,  442, 2492, 2491
7676, 442,  443, 2493, 2492
7677, 443,  444, 2494, 2493
7678, 444,  445, 2495, 2494
7679, 445,  446, 2496, 2495
7680, 446,  447, 2497, 2496
7681, 447,  448, 2498, 2497
7682, 448,  449, 2499, 2498
7683, 449,  450, 2500, 2499
7684, 450,  451, 2501, 2500
7685, 451,  452, 2502, 2501
7686, 452,  453, 2503, 2502
7687, 453,  454, 2504, 2503
7688, 454,  455, 2505, 2504
7689, 455,  456, 2506, 2505
7690, 456,  457, 2507, 2506
7691, 457,  458, 2508, 2507
7692, 458,  459, 2509, 2508
7693, 459,  460, 2510, 2509
7694, 460,  461, 2511, 2510
7695, 461,  462, 2512, 2511
7696, 462,  463, 2513, 2512
7697, 463,  464, 2514, 2513
7698, 464,  465, 2515, 2514
7699, 465,  466, 2516, 2515
7700, 466,  467, 2517, 2516
7701, 467,  468, 2518, 2517
7702, 468,  469, 2519, 2518
7703, 469,  470, 2520, 2519
7704, 470,  471, 2521, 2520
7705, 471,  472, 2522, 2521
7706, 472,  473, 2523, 2522
7707, 473,  474, 2524, 2523
7708, 474,  475, 2525, 2524
7709, 475,  476, 2526, 2525
7710, 476,  477, 2527, 2526
7711, 477,  478, 2528, 2527
7712, 478,  479, 2529, 2528
7713, 479,  480, 2530, 2529
7714, 480,  481, 2531, 2530
7715, 481,  482, 2532, 2531
7716, 482,  483, 2533, 2532
7717, 483,  484, 2534, 2533
7718, 484,  485, 2535, 2534
7719, 485,  486, 2536, 2535
7720, 486,  487, 2537, 2536
7721, 487,  488, 2538, 2537
7722, 488,  489, 2539, 2538
7723, 489,  490, 2540, 2539
7724, 490,  491, 2541, 2540
7725, 491,  492, 2542, 2541
7726, 492,  493, 2543, 2542
7727, 493,  494, 2544, 2543
7728, 494,  495, 2545, 2544
7729, 495,  496, 2546, 2545
7730, 496,  497, 2547, 2546
7731, 497,  21, 498, 2547
7732, 388, 2449, 2548, 389
7733, 2449, 2450, 2549, 2548
7734, 2450, 2451, 2550, 2549
7735, 2451, 2452, 2551, 2550
7736, 2452, 2453, 2552, 2551
7737, 2453, 2454, 2553, 2552
7738, 2454, 2455, 2554, 2553
7739, 2455, 2456, 2555, 2554
7740, 2456, 2457, 2556, 2555
7741, 2457, 2458, 2557, 2556
7742, 2458, 2459, 2558, 2557
7743, 2459, 2460, 2559, 2558
7744, 2460, 2461, 2560, 2559
7745, 2461, 2462, 2561, 2560
7746, 2462, 2463, 2562, 2561
7747, 2463, 2464, 2563, 2562
7748, 2464, 2465, 2564, 2563
7749, 2465, 2466, 2565, 2564
7750, 2466, 2467, 2566, 2565
7751, 2467, 2468, 2567, 2566
7752, 2468, 2469, 2568, 2567
7753, 2469, 2470, 2569, 2568
7754, 2470, 2471, 2570, 2569
7755, 2471, 2472, 2571, 2570
7756, 2472, 2473, 2572, 2571
7757, 2473, 2474, 2573, 2572
7758, 2474, 2475, 2574, 2573
7759, 2475, 2476, 2575, 2574
7760, 2476, 2477, 2576, 2575
7761, 2477, 2478, 2577, 2576
7762, 2478, 2479, 2578, 2577
7763, 2479, 2480, 2579, 2578
7764, 2480, 2481, 2580, 2579
7765, 2481, 2482, 2581, 2580
7766, 2482, 2483, 2582, 2581
7767, 2483, 2484, 2583, 2582
7768, 2484, 2485, 2584, 2583
7769, 2485, 2486, 2585, 2584
7770, 2486, 2487, 2586, 2585
7771, 2487, 2488, 2587, 2586
7772, 2488, 2489, 2588, 2587
7773, 2489, 2490, 2589, 2588
7774, 2490, 2491, 2590, 2589
7775, 2491, 2492, 2591, 2590
7776, 2492, 2493, 2592, 2591
7777, 2493, 2494, 2593, 2592
7778, 2494, 2495, 2594, 2593
7779, 2495, 2496, 2595, 2594
7780, 2496, 2497, 2596, 2595
7781, 2497, 2498, 2597, 2596
7782, 2498, 2499, 2598, 2597
7783, 2499, 2500, 2599, 2598
7784, 2500, 2501, 2600, 2599
7785, 2501, 2502, 2601, 2600
7786, 2502, 2503, 2602, 2601
7787, 2503, 2504, 2603, 2602
7788, 2504, 2505, 2604, 2603
7789, 2505, 2506, 2605, 2604
7790, 2506, 2507, 2606, 2605
7791, 2507, 2508, 2607, 2606
7792, 2508, 2509, 2608, 2607
7793, 2509, 2510, 2609, 2608
7794, 2510, 2511, 2610, 2609
7795, 2511, 2512, 2611, 2610
7796, 2512, 2513, 2612, 2611
7797, 2513, 2514, 2613, 2612
7798, 2514, 2515, 2614, 2613
7799, 2515, 2516, 2615, 2614
7800, 2516, 2517, 2616, 2615
7801, 2517, 2518, 2617, 2616
7802, 2518, 2519, 2618, 2617
7803, 2519, 2520, 2619, 2618
7804, 2520, 2521, 2620, 2619
7805, 2521, 2522, 2621, 2620
7806, 2522, 2523, 2622, 2621
7807, 2523, 2524, 2623, 2622
7808, 2524, 2525, 2624, 2623
7809, 2525, 2526, 2625, 2624
7810, 2526, 2527, 2626, 2625
7811, 2527, 2528, 2627, 2626
7812, 2528, 2529, 2628, 2627
7813, 2529, 2530, 2629, 2628
7814, 2530, 2531, 2630, 2629
7815, 2531, 2532, 2631, 2630
7816, 2532, 2533, 2632, 2631
7817, 2533, 2534, 2633, 2632
7818, 2534, 2535, 2634, 2633
7819, 2535, 2536, 2635, 2634
7820, 2536, 2537, 2636, 2635
7821, 2537, 2538, 2637, 2636
7822, 2538, 2539, 2638, 2637
7823, 2539, 2540, 2639, 2638
7824, 2540, 2541, 2640, 2639
7825, 2541, 2542, 2641, 2640
7826, 2542, 2543, 2642, 2641
7827, 2543, 2544, 2643, 2642
7828, 2544, 2545, 2644, 2643
7829, 2545, 2546, 2645, 2644
7830, 2546, 2547, 2646, 2645
7831, 2547,  498,  499, 2646
7832, 389, 2548, 2647, 390
7833, 2548, 2549, 2648, 2647
7834, 2549, 2550, 2649, 2648
7835, 2550, 2551, 2650, 2649
7836, 2551, 2552, 2651, 2650
7837, 2552, 2553, 2652, 2651
7838, 2553, 2554, 2653, 2652
7839, 2554, 2555, 2654, 2653
7840, 2555, 2556, 2655, 2654
7841, 2556, 2557, 2656, 2655
7842, 2557, 2558, 2657, 2656
7843, 2558, 2559, 2658, 2657
7844, 2559, 2560, 2659, 2658
7845, 2560, 2561, 2660, 2659
7846, 2561, 2562, 2661, 2660
7847, 2562, 2563, 2662, 2661
7848, 2563, 2564, 2663, 2662
7849, 2564, 2565, 2664, 2663
7850, 2565, 2566, 2665, 2664
7851, 2566, 2567, 2666, 2665
7852, 2567, 2568, 2667, 2666
7853, 2568, 2569, 2668, 2667
7854, 2569, 2570, 2669, 2668
7855, 2570, 2571, 2670, 2669
7856, 2571, 2572, 2671, 2670
7857, 2572, 2573, 2672, 2671
7858, 2573, 2574, 2673, 2672
7859, 2574, 2575, 2674, 2673
7860, 2575, 2576, 2675, 2674
7861, 2576, 2577, 2676, 2675
7862, 2577, 2578, 2677, 2676
7863, 2578, 2579, 2678, 2677
7864, 2579, 2580, 2679, 2678
7865, 2580, 2581, 2680, 2679
7866, 2581, 2582, 2681, 2680
7867, 2582, 2583, 2682, 2681
7868, 2583, 2584, 2683, 2682
7869, 2584, 2585, 2684, 2683
7870, 2585, 2586, 2685, 2684
7871, 2586, 2587, 2686, 2685
7872, 2587, 2588, 2687, 2686
7873, 2588, 2589, 2688, 2687
7874, 2589, 2590, 2689, 2688
7875, 2590, 2591, 2690, 2689
7876, 2591, 2592, 2691, 2690
7877, 2592, 2593, 2692, 2691
7878, 2593, 2594, 2693, 2692
7879, 2594, 2595, 2694, 2693
7880, 2595, 2596, 2695, 2694
7881, 2596, 2597, 2696, 2695
7882, 2597, 2598, 2697, 2696
7883, 2598, 2599, 2698, 2697
7884, 2599, 2600, 2699, 2698
7885, 2600, 2601, 2700, 2699
7886, 2601, 2602, 2701, 2700
7887, 2602, 2603, 2702, 2701
7888, 2603, 2604, 2703, 2702
7889, 2604, 2605, 2704, 2703
7890, 2605, 2606, 2705, 2704
7891, 2606, 2607, 2706, 2705
7892, 2607, 2608, 2707, 2706
7893, 2608, 2609, 2708, 2707
7894, 2609, 2610, 2709, 2708
7895, 2610, 2611, 2710, 2709
7896, 2611, 2612, 2711, 2710
7897, 2612, 2613, 2712, 2711
7898, 2613, 2614, 2713, 2712
7899, 2614, 2615, 2714, 2713
7900, 2615, 2616, 2715, 2714
7901, 2616, 2617, 2716, 2715
7902, 2617, 2618, 2717, 2716
7903, 2618, 2619, 2718, 2717
7904, 2619, 2620, 2719, 2718
7905, 2620, 2621, 2720, 2719
7906, 2621, 2622, 2721, 2720
7907, 2622, 2623, 2722, 2721
7908, 2623, 2624, 2723, 2722
7909, 2624, 2625, 2724, 2723
7910, 2625, 2626, 2725, 2724
7911, 2626, 2627, 2726, 2725
7912, 2627, 2628, 2727, 2726
7913, 2628, 2629, 2728, 2727
7914, 2629, 2630, 2729, 2728
7915, 2630, 2631, 2730, 2729
7916, 2631, 2632, 2731, 2730
7917, 2632, 2633, 2732, 2731
7918, 2633, 2634, 2733, 2732
7919, 2634, 2635, 2734, 2733
7920, 2635, 2636, 2735, 2734
7921, 2636, 2637, 2736, 2735
7922, 2637, 2638, 2737, 2736
7923, 2638, 2639, 2738, 2737
7924, 2639, 2640, 2739, 2738
7925, 2640, 2641, 2740, 2739
7926, 2641, 2642, 2741, 2740
7927, 2642, 2643, 2742, 2741
7928, 2643, 2644, 2743, 2742
7929, 2644, 2645, 2744, 2743
7930, 2645, 2646, 2745, 2744
7931, 2646,  499,  500, 2745
7932, 390, 2647, 2746, 391
7933, 2647, 2648, 2747, 2746
7934, 2648, 2649, 2748, 2747
7935, 2649, 2650, 2749, 2748
7936, 2650, 2651, 2750, 2749
7937, 2651, 2652, 2751, 2750
7938, 2652, 2653, 2752, 2751
7939, 2653, 2654, 2753, 2752
7940, 2654, 2655, 2754, 2753
7941, 2655, 2656, 2755, 2754
7942, 2656, 2657, 2756, 2755
7943, 2657, 2658, 2757, 2756
7944, 2658, 2659, 2758, 2757
7945, 2659, 2660, 2759, 2758
7946, 2660, 2661, 2760, 2759
7947, 2661, 2662, 2761, 2760
7948, 2662, 2663, 2762, 2761
7949, 2663, 2664, 2763, 2762
7950, 2664, 2665, 2764, 2763
7951, 2665, 2666, 2765, 2764
7952, 2666, 2667, 2766, 2765
7953, 2667, 2668, 2767, 2766
7954, 2668, 2669, 2768, 2767
7955, 2669, 2670, 2769, 2768
7956, 2670, 2671, 2770, 2769
7957, 2671, 2672, 2771, 2770
7958, 2672, 2673, 2772, 2771
7959, 2673, 2674, 2773, 2772
7960, 2674, 2675, 2774, 2773
7961, 2675, 2676, 2775, 2774
7962, 2676, 2677, 2776, 2775
7963, 2677, 2678, 2777, 2776
7964, 2678, 2679, 2778, 2777
7965, 2679, 2680, 2779, 2778
7966, 2680, 2681, 2780, 2779
7967, 2681, 2682, 2781, 2780
7968, 2682, 2683, 2782, 2781
7969, 2683, 2684, 2783, 2782
7970, 2684, 2685, 2784, 2783
7971, 2685, 2686, 2785, 2784
7972, 2686, 2687, 2786, 2785
7973, 2687, 2688, 2787, 2786
7974, 2688, 2689, 2788, 2787
7975, 2689, 2690, 2789, 2788
7976, 2690, 2691, 2790, 2789
7977, 2691, 2692, 2791, 2790
7978, 2692, 2693, 2792, 2791
7979, 2693, 2694, 2793, 2792
7980, 2694, 2695, 2794, 2793
7981, 2695, 2696, 2795, 2794
7982, 2696, 2697, 2796, 2795
7983, 2697, 2698, 2797, 2796
7984, 2698, 2699, 2798, 2797
7985, 2699, 2700, 2799, 2798
7986, 2700, 2701, 2800, 2799
7987, 2701, 2702, 2801, 2800
7988, 2702, 2703, 2802, 2801
7989, 2703, 2704, 2803, 2802
7990, 2704, 2705, 2804, 2803
7991, 2705, 2706, 2805, 2804
7992, 2706, 2707, 2806, 2805
7993, 2707, 2708, 2807, 2806
7994, 2708, 2709, 2808, 2807
7995, 2709, 2710, 2809, 2808
7996, 2710, 2711, 2810, 2809
7997, 2711, 2712, 2811, 2810
7998, 2712, 2713, 2812, 2811
7999, 2713, 2714, 2813, 2812
8000, 2714, 2715, 2814, 2813
8001, 2715, 2716, 2815, 2814
8002, 2716, 2717, 2816, 2815
8003, 2717, 2718, 2817, 2816
8004, 2718, 2719, 2818, 2817
8005, 2719, 2720, 2819, 2818
8006, 2720, 2721, 2820, 2819
8007, 2721, 2722, 2821, 2820
8008, 2722, 2723, 2822, 2821
8009, 2723, 2724, 2823, 2822
8010, 2724, 2725, 2824, 2823
8011, 2725, 2726, 2825, 2824
8012, 2726, 2727, 2826, 2825
8013, 2727, 2728, 2827, 2826
8014, 2728, 2729, 2828, 2827
8015, 2729, 2730, 2829, 2828
8016, 2730, 2731, 2830, 2829
8017, 2731, 2732, 2831, 2830
8018, 2732, 2733, 2832, 2831
8019, 2733, 2734, 2833, 2832
8020, 2734, 2735, 2834, 2833
8021, 2735, 2736, 2835, 2834
8022, 2736, 2737, 2836, 2835
8023, 2737, 2738, 2837, 2836
8024, 2738, 2739, 2838, 2837
8025, 2739, 2740, 2839, 2838
8026, 2740, 2741, 2840, 2839
8027, 2741, 2742, 2841, 2840
8028, 2742, 2743, 2842, 2841
8029, 2743, 2744, 2843, 2842
8030, 2744, 2745, 2844, 2843
8031, 2745,  500,  501, 2844
8032, 391, 2746, 2845, 392
8033, 2746, 2747, 2846, 2845
8034, 2747, 2748, 2847, 2846
8035, 2748, 2749, 2848, 2847
8036, 2749, 2750, 2849, 2848
8037, 2750, 2751, 2850, 2849
8038, 2751, 2752, 2851, 2850
8039, 2752, 2753, 2852, 2851
8040, 2753, 2754, 2853, 2852
8041, 2754, 2755, 2854, 2853
8042, 2755, 2756, 2855, 2854
8043, 2756, 2757, 2856, 2855
8044, 2757, 2758, 2857, 2856
8045, 2758, 2759, 2858, 2857
8046, 2759, 2760, 2859, 2858
8047, 2760, 2761, 2860, 2859
8048, 2761, 2762, 2861, 2860
8049, 2762, 2763, 2862, 2861
8050, 2763, 2764, 2863, 2862
8051, 2764, 2765, 2864, 2863
8052, 2765, 2766, 2865, 2864
8053, 2766, 2767, 2866, 2865
8054, 2767, 2768, 2867, 2866
8055, 2768, 2769, 2868, 2867
8056, 2769, 2770, 2869, 2868
8057, 2770, 2771, 2870, 2869
8058, 2771, 2772, 2871, 2870
8059, 2772, 2773, 2872, 2871
8060, 2773, 2774, 2873, 2872
8061, 2774, 2775, 2874, 2873
8062, 2775, 2776, 2875, 2874
8063, 2776, 2777, 2876, 2875
8064, 2777, 2778, 2877, 2876
8065, 2778, 2779, 2878, 2877
8066, 2779, 2780, 2879, 2878
8067, 2780, 2781, 2880, 2879
8068, 2781, 2782, 2881, 2880
8069, 2782, 2783, 2882, 2881
8070, 2783, 2784, 2883, 2882
8071, 2784, 2785, 2884, 2883
8072, 2785, 2786, 2885, 2884
8073, 2786, 2787, 2886, 2885
8074, 2787, 2788, 2887, 2886
8075, 2788, 2789, 2888, 2887
8076, 2789, 2790, 2889, 2888
8077, 2790, 2791, 2890, 2889
8078, 2791, 2792, 2891, 2890
8079, 2792, 2793, 2892, 2891
8080, 2793, 2794, 2893, 2892
8081, 2794, 2795, 2894, 2893
8082, 2795, 2796, 2895, 2894
8083, 2796, 2797, 2896, 2895
8084, 2797, 2798, 2897, 2896
8085, 2798, 2799, 2898, 2897
8086, 2799, 2800, 2899, 2898
8087, 2800, 2801, 2900, 2899
8088, 2801, 2802, 2901, 2900
8089, 2802, 2803, 2902, 2901
8090, 2803, 2804, 2903, 2902
8091, 2804, 2805, 2904, 2903
8092, 2805, 2806, 2905, 2904
8093, 2806, 2807, 2906, 2905
8094, 2807, 2808, 2907, 2906
8095, 2808, 2809, 2908, 2907
8096, 2809, 2810, 2909, 2908
8097, 2810, 2811, 2910, 2909
8098, 2811, 2812, 2911, 2910
8099, 2812, 2813, 2912, 2911
8100, 2813, 2814, 2913, 2912
8101, 2814, 2815, 2914, 2913
8102, 2815, 2816, 2915, 2914
8103, 2816, 2817, 2916, 2915
8104, 2817, 2818, 2917, 2916
8105, 2818, 2819, 2918, 2917
8106, 2819, 2820, 2919, 2918
8107, 2820, 2821, 2920, 2919
8108, 2821, 2822, 2921, 2920
8109, 2822, 2823, 2922, 2921
8110, 2823, 2824, 2923, 2922
8111, 2824, 2825, 2924, 2923
8112, 2825, 2826, 2925, 2924
8113, 2826, 2827, 2926, 2925
8114, 2827, 2828, 2927, 2926
8115, 2828, 2829, 2928, 2927
8116, 2829, 2830, 2929, 2928
8117, 2830, 2831, 2930, 2929
8118, 2831, 2832, 2931, 2930
8119, 2832, 2833, 2932, 2931
8120, 2833, 2834, 2933, 2932
8121, 2834, 2835, 2934, 2933
8122, 2835, 2836, 2935, 2934
8123, 2836, 2837, 2936, 2935
8124, 2837, 2838, 2937, 2936
8125, 2838, 2839, 2938, 2937
8126, 2839, 2840, 2939, 2938
8127, 2840, 2841, 2940, 2939
8128, 2841, 2842, 2941, 2940
8129, 2842, 2843, 2942, 2941
8130, 2843, 2844, 2943, 2942
8131, 2844,  501,  502, 2943
8132, 392, 2845, 2944, 393
8133, 2845, 2846, 2945, 2944
8134, 2846, 2847, 2946, 2945
8135, 2847, 2848, 2947, 2946
8136, 2848, 2849, 2948, 2947
8137, 2849, 2850, 2949, 2948
8138, 2850, 2851, 2950, 2949
8139, 2851, 2852, 2951, 2950
8140, 2852, 2853, 2952, 2951
8141, 2853, 2854, 2953, 2952
8142, 2854, 2855, 2954, 2953
8143, 2855, 2856, 2955, 2954
8144, 2856, 2857, 2956, 2955
8145, 2857, 2858, 2957, 2956
8146, 2858, 2859, 2958, 2957
8147, 2859, 2860, 2959, 2958
8148, 2860, 2861, 2960, 2959
8149, 2861, 2862, 2961, 2960
8150, 2862, 2863, 2962, 2961
8151, 2863, 2864, 2963, 2962
8152, 2864, 2865, 2964, 2963
8153, 2865, 2866, 2965, 2964
8154, 2866, 2867, 2966, 2965
8155, 2867, 2868, 2967, 2966
8156, 2868, 2869, 2968, 2967
8157, 2869, 2870, 2969, 2968
8158, 2870, 2871, 2970, 2969
8159, 2871, 2872, 2971, 2970
8160, 2872, 2873, 2972, 2971
8161, 2873, 2874, 2973, 2972
8162, 2874, 2875, 2974, 2973
8163, 2875, 2876, 2975, 2974
8164, 2876, 2877, 2976, 2975
8165, 2877, 2878, 2977, 2976
8166, 2878, 2879, 2978, 2977
8167, 2879, 2880, 2979, 2978
8168, 2880, 2881, 2980, 2979
8169, 2881, 2882, 2981, 2980
8170, 2882, 2883, 2982, 2981
8171, 2883, 2884, 2983, 2982
8172, 2884, 2885, 2984, 2983
8173, 2885, 2886, 2985, 2984
8174, 2886, 2887, 2986, 2985
8175, 2887, 2888, 2987, 2986
8176, 2888, 2889, 2988, 2987
8177, 2889, 2890, 2989, 2988
8178, 2890, 2891, 2990, 2989
8179, 2891, 2892, 2991, 2990
8180, 2892, 2893, 2992, 2991
8181, 2893, 2894, 2993, 2992
8182, 2894, 2895, 2994, 2993
8183, 2895, 2896, 2995, 2994
8184, 2896, 2897, 2996, 2995
8185, 2897, 2898, 2997, 2996
8186, 2898, 2899, 2998, 2997
8187, 2899, 2900, 2999, 2998
8188, 2900, 2901, 3000, 2999
8189, 2901, 2902, 3001, 3000
8190, 2902, 2903, 3002, 3001
8191, 2903, 2904, 3003, 3002
8192, 2904, 2905, 3004, 3003
8193, 2905, 2906, 3005, 3004
8194, 2906, 2907, 3006, 3005
8195, 2907, 2908, 3007, 3006
8196, 2908, 2909, 3008, 3007
8197, 2909, 2910, 3009, 3008
8198, 2910, 2911, 3010, 3009
8199, 2911, 2912, 3011, 3010
8200, 2912, 2913, 3012, 3011
8201, 2913, 2914, 3013, 3012
8202, 2914, 2915, 3014, 3013
8203, 2915, 2916, 3015, 3014
8204, 2916, 2917, 3016, 3015
8205, 2917, 2918, 3017, 3016
8206, 2918, 2919, 3018, 3017
8207, 2919, 2920, 3019, 3018
8208, 2920, 2921, 3020, 3019
8209, 2921, 2922, 3021, 3020
8210, 2922, 2923, 3022, 3021
8211, 2923, 2924, 3023, 3022
8212, 2924, 2925, 3024, 3023
8213, 2925, 2926, 3025, 3024
8214, 2926, 2927, 3026, 3025
8215, 2927, 2928, 3027, 3026
8216, 2928, 2929, 3028, 3027
8217, 2929, 2930, 3029, 3028
8218, 2930, 2931, 3030, 3029
8219, 2931, 2932, 3031, 3030
8220, 2932, 2933, 3032, 3031
8221, 2933, 2934, 3033, 3032
8222, 2934, 2935, 3034, 3033
8223, 2935, 2936, 3035, 3034
8224, 2936, 2937, 3036, 3035
8225, 2937, 2938, 3037, 3036
8226, 2938, 2939, 3038, 3037
8227, 2939, 2940, 3039, 3038
8228, 2940, 2941, 3040, 3039
8229, 2941, 2942, 3041, 3040
8230, 2942, 2943, 3042, 3041
8231, 2943,  502,  503, 3042
8232, 393, 2944, 3043, 394
8233, 2944, 2945, 3044, 3043
8234, 2945, 2946, 3045, 3044
8235, 2946, 2947, 3046, 3045
8236, 2947, 2948, 3047, 3046
8237, 2948, 2949, 3048, 3047
8238, 2949, 2950, 3049, 3048
8239, 2950, 2951, 3050, 3049
8240, 2951, 2952, 3051, 3050
8241, 2952, 2953, 3052, 3051
8242, 2953, 2954, 3053, 3052
8243, 2954, 2955, 3054, 3053
8244, 2955, 2956, 3055, 3054
8245, 2956, 2957, 3056, 3055
8246, 2957, 2958, 3057, 3056
8247, 2958, 2959, 3058, 3057
8248, 2959, 2960, 3059, 3058
8249, 2960, 2961, 3060, 3059
8250, 2961, 2962, 3061, 3060
8251, 2962, 2963, 3062, 3061
8252, 2963, 2964, 3063, 3062
8253, 2964, 2965, 3064, 3063
8254, 2965, 2966, 3065, 3064
8255, 2966, 2967, 3066, 3065
8256, 2967, 2968, 3067, 3066
8257, 2968, 2969, 3068, 3067
8258, 2969, 2970, 3069, 3068
8259, 2970, 2971, 3070, 3069
8260, 2971, 2972, 3071, 3070
8261, 2972, 2973, 3072, 3071
8262, 2973, 2974, 3073, 3072
8263, 2974, 2975, 3074, 3073
8264, 2975, 2976, 3075, 3074
8265, 2976, 2977, 3076, 3075
8266, 2977, 2978, 3077, 3076
8267, 2978, 2979, 3078, 3077
8268, 2979, 2980, 3079, 3078
8269, 2980, 2981, 3080, 3079
8270, 2981, 2982, 3081, 3080
8271, 2982, 2983, 3082, 3081
8272, 2983, 2984, 3083, 3082
8273, 2984, 2985, 3084, 3083
8274, 2985, 2986, 3085, 3084
8275, 2986, 2987, 3086, 3085
8276, 2987, 2988, 3087, 3086
8277, 2988, 2989, 3088, 3087
8278, 2989, 2990, 3089, 3088
8279, 2990, 2991, 3090, 3089
8280, 2991, 2992, 3091, 3090
8281, 2992, 2993, 3092, 3091
8282, 2993, 2994, 3093, 3092
8283, 2994, 2995, 3094, 3093
8284, 2995, 2996, 3095, 3094
8285, 2996, 2997, 3096, 3095
8286, 2997, 2998, 3097, 3096
8287, 2998, 2999, 3098, 3097
8288, 2999, 3000, 3099, 3098
8289, 3000, 3001, 3100, 3099
8290, 3001, 3002, 3101, 3100
8291, 3002, 3003, 3102, 3101
8292, 3003, 3004, 3103, 3102
8293, 3004, 3005, 3104, 3103
8294, 3005, 3006, 3105, 3104
8295, 3006, 3007, 3106, 3105
8296, 3007, 3008, 3107, 3106
8297, 3008, 3009, 3108, 3107
8298, 3009, 3010, 3109, 3108
8299, 3010, 3011, 3110, 3109
8300, 3011, 3012, 3111, 3110
8301, 3012, 3013, 3112, 3111
8302, 3013, 3014, 3113, 3112
8303, 3014, 3015, 3114, 3113
8304, 3015, 3016, 3115, 3114
8305, 3016, 3017, 3116, 3115
8306, 3017, 3018, 3117, 3116
8307, 3018, 3019, 3118, 3117
8308, 3019, 3020, 3119, 3118
8309, 3020, 3021, 3120, 3119
8310, 3021, 3022, 3121, 3120
8311, 3022, 3023, 3122, 3121
8312, 3023, 3024, 3123, 3122
8313, 3024, 3025, 3124, 3123
8314, 3025, 3026, 3125, 3124
8315, 3026, 3027, 3126, 3125
8316, 3027, 3028, 3127, 3126
8317, 3028, 3029, 3128, 3127
8318, 3029, 3030, 3129, 3128
8319, 3030, 3031, 3130, 3129
8320, 3031, 3032, 3131, 3130
8321, 3032, 3033, 3132, 3131
8322, 3033, 3034, 3133, 3132
8323, 3034, 3035, 3134, 3133
8324, 3035, 3036, 3135, 3134
8325, 3036, 3037, 3136, 3135
8326, 3037, 3038, 3137, 3136
8327, 3038, 3039, 3138, 3137
8328, 3039, 3040, 3139, 3138
8329, 3040, 3041, 3140, 3139
8330, 3041, 3042, 3141, 3140
8331, 3042,  503,  504, 3141
8332, 394, 3043, 3142, 395
8333, 3043, 3044, 3143, 3142
8334, 3044, 3045, 3144, 3143
8335, 3045, 3046, 3145, 3144
8336, 3046, 3047, 3146, 3145
8337, 3047, 3048, 3147, 3146
8338, 3048, 3049, 3148, 3147
8339, 3049, 3050, 3149, 3148
8340, 3050, 3051, 3150, 3149
8341, 3051, 3052, 3151, 3150
8342, 3052, 3053, 3152, 3151
8343, 3053, 3054, 3153, 3152
8344, 3054, 3055, 3154, 3153
8345, 3055, 3056, 3155, 3154
8346, 3056, 3057, 3156, 3155
8347, 3057, 3058, 3157, 3156
8348, 3058, 3059, 3158, 3157
8349, 3059, 3060, 3159, 3158
8350, 3060, 3061, 3160, 3159
8351, 3061, 3062, 3161, 3160
8352, 3062, 3063, 3162, 3161
8353, 3063, 3064, 3163, 3162
8354, 3064, 3065, 3164, 3163
8355, 3065, 3066, 3165, 3164
8356, 3066, 3067, 3166, 3165
8357, 3067, 3068, 3167, 3166
8358, 3068, 3069, 3168, 3167
8359, 3069, 3070, 3169, 3168
8360, 3070, 3071, 3170, 3169
8361, 3071, 3072, 3171, 3170
8362, 3072, 3073, 3172, 3171
8363, 3073, 3074, 3173, 3172
8364, 3074, 3075, 3174, 3173
8365, 3075, 3076, 3175, 3174
8366, 3076, 3077, 3176, 3175
8367, 3077, 3078, 3177, 3176
8368, 3078, 3079, 3178, 3177
8369, 3079, 3080, 3179, 3178
8370, 3080, 3081, 3180, 3179
8371, 3081, 3082, 3181, 3180
8372, 3082, 3083, 3182, 3181
8373, 3083, 3084, 3183, 3182
8374, 3084, 3085, 3184, 3183
8375, 3085, 3086, 3185, 3184
8376, 3086, 3087, 3186, 3185
8377, 3087, 3088, 3187, 3186
8378, 3088, 3089, 3188, 3187
8379, 3089, 3090, 3189, 3188
8380, 3090, 3091, 3190, 3189
8381, 3091, 3092, 3191, 3190
8382, 3092, 3093, 3192, 3191
8383, 3093, 3094, 3193, 3192
8384, 3094, 3095, 3194, 3193
8385, 3095, 3096, 3195, 3194
8386, 3096, 3097, 3196, 3195
8387, 3097, 3098, 3197, 3196
8388, 3098, 3099, 3198, 3197
8389, 3099, 3100, 3199, 3198
8390, 3100, 3101, 3200, 3199
8391, 3101, 3102, 3201, 3200
8392, 3102, 3103, 3202, 3201
8393, 3103, 3104, 3203, 3202
8394, 3104, 3105, 3204, 3203
8395, 3105, 3106, 3205, 3204
8396, 3106, 3107, 3206, 3205
8397, 3107, 3108, 3207, 3206
8398, 3108, 3109, 3208, 3207
8399, 3109, 3110, 3209, 3208
8400, 3110, 3111, 3210, 3209
8401, 3111, 3112, 3211, 3210
8402, 3112, 3113, 3212, 3211
8403, 3113, 3114, 3213, 3212
8404, 3114, 3115, 3214, 3213
8405, 3115, 3116, 3215, 3214
8406, 3116, 3117, 3216, 3215
8407, 3117, 3118, 3217, 3216
8408, 3118, 3119, 3218, 3217
8409, 3119, 3120, 3219, 3218
8410, 3120, 3121, 3220, 3219
8411, 3121, 3122, 3221, 3220
8412, 3122, 3123, 3222, 3221
8413, 3123, 3124, 3223, 3222
8414, 3124, 3125, 3224, 3223
8415, 3125, 3126, 3225, 3224
8416, 3126, 3127, 3226, 3225
8417, 3127, 3128, 3227, 3226
8418, 3128, 3129, 3228, 3227
8419, 3129, 3130, 3229, 3228
8420, 3130, 3131, 3230, 3229
8421, 3131, 3132, 3231, 3230
8422, 3132, 3133, 3232, 3231
8423, 3133, 3134, 3233, 3232
8424, 3134, 3135, 3234, 3233
8425, 3135, 3136, 3235, 3234
8426, 3136, 3137, 3236, 3235
8427, 3137, 3138, 3237, 3236
8428, 3138, 3139, 3238, 3237
8429, 3139, 3140, 3239, 3238
8430, 3140, 3141, 3240, 3239
8431, 3141,  504,   22, 3240
8432, 395, 3142, 3241, 396
8433, 3142, 3143, 3242, 3241
8434, 3143, 3144, 3243, 3242
8435, 3144, 3145, 3244, 3243
8436, 3145, 3146, 3245, 3244
8437, 3146, 3147, 3246, 3245
8438, 3147, 3148, 3247, 3246
8439, 3148, 3149, 3248, 3247
8440, 3149, 3150, 3249, 3248
8441, 3150, 3151, 3250, 3249
8442, 3151, 3152, 3251, 3250
8443, 3152, 3153, 3252, 3251
8444, 3153, 3154, 3253, 3252
8445, 3154, 3155, 3254, 3253
8446, 3155, 3156, 3255, 3254
8447, 3156, 3157, 3256, 3255
8448, 3157, 3158, 3257, 3256
8449, 3158, 3159, 3258, 3257
8450, 3159, 3160, 3259, 3258
8451, 3160, 3161, 3260, 3259
8452, 3161, 3162, 3261, 3260
8453, 3162, 3163, 3262, 3261
8454, 3163, 3164, 3263, 3262
8455, 3164, 3165, 3264, 3263
8456, 3165, 3166, 3265, 3264
8457, 3166, 3167, 3266, 3265
8458, 3167, 3168, 3267, 3266
8459, 3168, 3169, 3268, 3267
8460, 3169, 3170, 3269, 3268
8461, 3170, 3171, 3270, 3269
8462, 3171, 3172, 3271, 3270
8463, 3172, 3173, 3272, 3271
8464, 3173, 3174, 3273, 3272
8465, 3174, 3175, 3274, 3273
8466, 3175, 3176, 3275, 3274
8467, 3176, 3177, 3276, 3275
8468, 3177, 3178, 3277, 3276
8469, 3178, 3179, 3278, 3277
8470, 3179, 3180, 3279, 3278
8471, 3180, 3181, 3280, 3279
8472, 3181, 3182, 3281, 3280
8473, 3182, 3183, 3282, 3281
8474, 3183, 3184, 3283, 3282
8475, 3184, 3185, 3284, 3283
8476, 3185, 3186, 3285, 3284
8477, 3186, 3187, 3286, 3285
8478, 3187, 3188, 3287, 3286
8479, 3188, 3189, 3288, 3287
8480, 3189, 3190, 3289, 3288
8481, 3190, 3191, 3290, 3289
8482, 3191, 3192, 3291, 3290
8483, 3192, 3193, 3292, 3291
8484, 3193, 3194, 3293, 3292
8485, 3194, 3195, 3294, 3293
8486, 3195, 3196, 3295, 3294
8487, 3196, 3197, 3296, 3295
8488, 3197, 3198, 3297, 3296
8489, 3198, 3199, 3298, 3297
8490, 3199, 3200, 3299, 3298
8491, 3200, 3201, 3300, 3299
8492, 3201, 3202, 3301, 3300
8493, 3202, 3203, 3302, 3301
8494, 3203, 3204, 3303, 3302
8495, 3204, 3205, 3304, 3303
8496, 3205, 3206, 3305, 3304
8497, 3206, 3207, 3306, 3305
8498, 3207, 3208, 3307, 3306
8499, 3208, 3209, 3308, 3307
8500, 3209, 3210, 3309, 3308
8501, 3210, 3211, 3310, 3309
8502, 3211, 3212, 3311, 3310
8503, 3212, 3213, 3312, 3311
8504, 3213, 3214, 3313, 3312
8505, 3214, 3215, 3314, 3313
8506, 3215, 3216, 3315, 3314
8507, 3216, 3217, 3316, 3315
8508, 3217, 3218, 3317, 3316
8509, 3218, 3219, 3318, 3317
8510, 3219, 3220, 3319, 3318
8511, 3220, 3221, 3320, 3319
8512, 3221, 3222, 3321, 3320
8513, 3222, 3223, 3322, 3321
8514, 3223, 3224, 3323, 3322
8515, 3224, 3225, 3324, 3323
8516, 3225, 3226, 3325, 3324
8517, 3226, 3227, 3326, 3325
8518, 3227, 3228, 3327, 3326
8519, 3228, 3229, 3328, 3327
8520, 3229, 3230, 3329, 3328
8521, 3230, 3231, 3330, 3329
8522, 3231, 3232, 3331, 3330
8523, 3232, 3233, 3332, 3331
8524, 3233, 3234, 3333, 3332
8525, 3234, 3235, 3334, 3333
8526, 3235, 3236, 3335, 3334
8527, 3236, 3237, 3336, 3335
8528, 3237, 3238, 3337, 3336
8529, 3238, 3239, 3338, 3337
8530, 3239, 3240, 3339, 3338
8531, 3240,   22,  505, 3339
8532, 396, 3241, 3340, 20
8533, 3241, 3242, 3341, 3340
8534, 3242, 3243, 3342, 3341
8535, 3243, 3244, 3343, 3342
8536, 3244, 3245, 3344, 3343
8537, 3245, 3246, 3345, 3344
8538, 3246, 3247, 3346, 3345
8539, 3247, 3248, 3347, 3346
8540, 3248, 3249, 3348, 3347
8541, 3249, 3250, 3349, 3348
8542, 3250, 3251, 3350, 3349
8543, 3251, 3252, 3351, 3350
8544, 3252, 3253, 3352, 3351
8545, 3253, 3254, 3353, 3352
8546, 3254, 3255, 3354, 3353
8547, 3255, 3256, 3355, 3354
8548, 3256, 3257, 3356, 3355
8549, 3257, 3258, 3357, 3356
8550, 3258, 3259, 3358, 3357
8551, 3259, 3260, 3359, 3358
8552, 3260, 3261, 3360, 3359
8553, 3261, 3262, 3361, 3360
8554, 3262, 3263, 3362, 3361
8555, 3263, 3264, 3363, 3362
8556, 3264, 3265, 3364, 3363
8557, 3265, 3266, 3365, 3364
8558, 3266, 3267, 3366, 3365
8559, 3267, 3268, 3367, 3366
8560, 3268, 3269, 3368, 3367
8561, 3269, 3270, 3369, 3368
8562, 3270, 3271, 3370, 3369
8563, 3271, 3272, 3371, 3370
8564, 3272, 3273, 3372, 3371
8565, 3273, 3274, 3373, 3372
8566, 3274, 3275, 3374, 3373
8567, 3275, 3276, 3375, 3374
8568, 3276, 3277, 3376, 3375
8569, 3277, 3278, 3377, 3376
8570, 3278, 3279, 3378, 3377
8571, 3279, 3280, 3379, 3378
8572, 3280, 3281, 3380, 3379
8573, 3281, 3282, 3381, 3380
8574, 3282, 3283, 3382, 3381
8575, 3283, 3284, 3383, 3382
8576, 3284, 3285, 3384, 3383
8577, 3285, 3286, 3385, 3384
8578, 3286, 3287, 3386, 3385
8579, 3287, 3288, 3387, 3386
8580, 3288, 3289, 3388, 3387
8581, 3289, 3290, 3389, 3388
8582, 3290, 3291, 3390, 3389
8583, 3291, 3292, 3391, 3390
8584, 3292, 3293, 3392, 3391
8585, 3293, 3294, 3393, 3392
8586, 3294, 3295, 3394, 3393
8587, 3295, 3296, 3395, 3394
8588, 3296, 3297, 3396, 3395
8589, 3297, 3298, 3397, 3396
8590, 3298, 3299, 3398, 3397
8591, 3299, 3300, 3399, 3398
8592, 3300, 3301, 3400, 3399
8593, 3301, 3302, 3401, 3400
8594, 3302, 3303, 3402, 3401
8595, 3303, 3304, 3403, 3402
8596, 3304, 3305, 3404, 3403
8597, 3305, 3306, 3405, 3404
8598, 3306, 3307, 3406, 3405
8599, 3307, 3308, 3407, 3406
8600, 3308, 3309, 3408, 3407
8601, 3309, 3310, 3409, 3408
8602, 3310, 3311, 3410, 3409
8603, 3311, 3312, 3411, 3410
8604, 3312, 3313, 3412, 3411
8605, 3313, 3314, 3413, 3412
8606, 3314, 3315, 3414, 3413
8607, 3315, 3316, 3415, 3414
8608, 3316, 3317, 3416, 3415
8609, 3317, 3318, 3417, 3416
8610, 3318, 3319, 3418, 3417
8611, 3319, 3320, 3419, 3418
8612, 3320, 3321, 3420, 3419
8613, 3321, 3322, 3421, 3420
8614, 3322, 3323, 3422, 3421
8615, 3323, 3324, 3423, 3422
8616, 3324, 3325, 3424, 3423
8617, 3325, 3326, 3425, 3424
8618, 3326, 3327, 3426, 3425
8619, 3327, 3328, 3427, 3426
8620, 3328, 3329, 3428, 3427
8621, 3329, 3330, 3429, 3428
8622, 3330, 3331, 3430, 3429
8623, 3331, 3332, 3431, 3430
8624, 3332, 3333, 3432, 3431
8625, 3333, 3334, 3433, 3432
8626, 3334, 3335, 3434, 3433
8627, 3335, 3336, 3435, 3434
8628, 3336, 3337, 3436, 3435
8629, 3337, 3338, 3437, 3436
8630, 3338, 3339, 3438, 3437
8631, 3339,  505,  506, 3438
8632, 20, 3340, 3439, 533
8633, 3340, 3341, 3440, 3439
8634, 3341, 3342, 3441, 3440
8635, 3342, 3343, 3442, 3441
8636, 3343, 3344, 3443, 3442
8637, 3344, 3345, 3444, 3443
8638, 3345, 3346, 3445, 3444
8639, 3346, 3347, 3446, 3445
8640, 3347, 3348, 3447, 3446
8641, 3348, 3349, 3448, 3447
8642, 3349, 3350, 3449, 3448
8643, 3350, 3351, 3450, 3449
8644, 3351, 3352, 3451, 3450
8645, 3352, 3353, 3452, 3451
8646, 3353, 3354, 3453, 3452
8647, 3354, 3355, 3454, 3453
8648, 3355, 3356, 3455, 3454
8649, 3356, 3357, 3456, 3455
8650, 3357, 3358, 3457, 3456
8651, 3358, 3359, 3458, 3457
8652, 3359, 3360, 3459, 3458
8653, 3360, 3361, 3460, 3459
8654, 3361, 3362, 3461, 3460
8655, 3362, 3363, 3462, 3461
8656, 3363, 3364, 3463, 3462
8657, 3364, 3365, 3464, 3463
8658, 3365, 3366, 3465, 3464
8659, 3366, 3367, 3466, 3465
8660, 3367, 3368, 3467, 3466
8661, 3368, 3369, 3468, 3467
8662, 3369, 3370, 3469, 3468
8663, 3370, 3371, 3470, 3469
8664, 3371, 3372, 3471, 3470
8665, 3372, 3373, 3472, 3471
8666, 3373, 3374, 3473, 3472
8667, 3374, 3375, 3474, 3473
8668, 3375, 3376, 3475, 3474
8669, 3376, 3377, 3476, 3475
8670, 3377, 3378, 3477, 3476
8671, 3378, 3379, 3478, 3477
8672, 3379, 3380, 3479, 3478
8673, 3380, 3381, 3480, 3479
8674, 3381, 3382, 3481, 3480
8675, 3382, 3383, 3482, 3481
8676, 3383, 3384, 3483, 3482
8677, 3384, 3385, 3484, 3483
8678, 3385, 3386, 3485, 3484
8679, 3386, 3387, 3486, 3485
8680, 3387, 3388, 3487, 3486
8681, 3388, 3389, 3488, 3487
8682, 3389, 3390, 3489, 3488
8683, 3390, 3391, 3490, 3489
8684, 3391, 3392, 3491, 3490
8685, 3392, 3393, 3492, 3491
8686, 3393, 3394, 3493, 3492
8687, 3394, 3395, 3494, 3493
8688, 3395, 3396, 3495, 3494
8689, 3396, 3397, 3496, 3495
8690, 3397, 3398, 3497, 3496
8691, 3398, 3399, 3498, 3497
8692, 3399, 3400, 3499, 3498
8693, 3400, 3401, 3500, 3499
8694, 3401, 3402, 3501, 3500
8695, 3402, 3403, 3502, 3501
8696, 3403, 3404, 3503, 3502
8697, 3404, 3405, 3504, 3503
8698, 3405, 3406, 3505, 3504
8699, 3406, 3407, 3506, 3505
8700, 3407, 3408, 3507, 3506
8701, 3408, 3409, 3508, 3507
8702, 3409, 3410, 3509, 3508
8703, 3410, 3411, 3510, 3509
8704, 3411, 3412, 3511, 3510
8705, 3412, 3413, 3512, 3511
8706, 3413, 3414, 3513, 3512
8707, 3414, 3415, 3514, 3513
8708, 3415, 3416, 3515, 3514
8709, 3416, 3417, 3516, 3515
8710, 3417, 3418, 3517, 3516
8711, 3418, 3419, 3518, 3517
8712, 3419, 3420, 3519, 3518
8713, 3420, 3421, 3520, 3519
8714, 3421, 3422, 3521, 3520
8715, 3422, 3423, 3522, 3521
8716, 3423, 3424, 3523, 3522
8717, 3424, 3425, 3524, 3523
8718, 3425, 3426, 3525, 3524
8719, 3426, 3427, 3526, 3525
8720, 3427, 3428, 3527, 3526
8721, 3428, 3429, 3528, 3527
8722, 3429, 3430, 3529, 3528
8723, 3430, 3431, 3530, 3529
8724, 3431, 3432, 3531, 3530
8725, 3432, 3433, 3532, 3531
8726, 3433, 3434, 3533, 3532
8727, 3434, 3435, 3534, 3533
8728, 3435, 3436, 3535, 3534
8729, 3436, 3437, 3536, 3535
8730, 3437, 3438, 3537, 3536
8731, 3438,  506,  507, 3537
8732, 533, 3439, 3538, 532
8733, 3439, 3440, 3539, 3538
8734, 3440, 3441, 3540, 3539
8735, 3441, 3442, 3541, 3540
8736, 3442, 3443, 3542, 3541
8737, 3443, 3444, 3543, 3542
8738, 3444, 3445, 3544, 3543
8739, 3445, 3446, 3545, 3544
8740, 3446, 3447, 3546, 3545
8741, 3447, 3448, 3547, 3546
8742, 3448, 3449, 3548, 3547
8743, 3449, 3450, 3549, 3548
8744, 3450, 3451, 3550, 3549
8745, 3451, 3452, 3551, 3550
8746, 3452, 3453, 3552, 3551
8747, 3453, 3454, 3553, 3552
8748, 3454, 3455, 3554, 3553
8749, 3455, 3456, 3555, 3554
8750, 3456, 3457, 3556, 3555
8751, 3457, 3458, 3557, 3556
8752, 3458, 3459, 3558, 3557
8753, 3459, 3460, 3559, 3558
8754, 3460, 3461, 3560, 3559
8755, 3461, 3462, 3561, 3560
8756, 3462, 3463, 3562, 3561
8757, 3463, 3464, 3563, 3562
8758, 3464, 3465, 3564, 3563
8759, 3465, 3466, 3565, 3564
8760, 3466, 3467, 3566, 3565
8761, 3467, 3468, 3567, 3566
8762, 3468, 3469, 3568, 3567
8763, 3469, 3470, 3569, 3568
8764, 3470, 3471, 3570, 3569
8765, 3471, 3472, 3571, 3570
8766, 3472, 3473, 3572, 3571
8767, 3473, 3474, 3573, 3572
8768, 3474, 3475, 3574, 3573
8769, 3475, 3476, 3575, 3574
8770, 3476, 3477, 3576, 3575
8771, 3477, 3478, 3577, 3576
8772, 3478, 3479, 3578, 3577
8773, 3479, 3480, 3579, 3578
8774, 3480, 3481, 3580, 3579
8775, 3481, 3482, 3581, 3580
8776, 3482, 3483, 3582, 3581
8777, 3483, 3484, 3583, 3582
8778, 3484, 3485, 3584, 3583
8779, 3485, 3486, 3585, 3584
8780, 3486, 3487, 3586, 3585
8781, 3487, 3488, 3587, 3586
8782, 3488, 3489, 3588, 3587
8783, 3489, 3490, 3589, 3588
8784, 3490, 3491, 3590, 3589
8785, 3491, 3492, 3591, 3590
8786, 3492, 3493, 3592, 3591
8787, 3493, 3494, 3593, 3592
8788, 3494, 3495, 3594, 3593
8789, 3495, 3496, 3595, 3594
8790, 3496, 3497, 3596, 3595
8791, 3497, 3498, 3597, 3596
8792, 3498, 3499, 3598, 3597
8793, 3499, 3500, 3599, 3598
8794, 3500, 3501, 3600, 3599
8795, 3501, 3502, 3601, 3600
8796, 3502, 3503, 3602, 3601
8797, 3503, 3504, 3603, 3602
8798, 3504, 3505, 3604, 3603
8799, 3505, 3506, 3605, 3604
8800, 3506, 3507, 3606, 3605
8801, 3507, 3508, 3607, 3606
8802, 3508, 3509, 3608, 3607
8803, 3509, 3510, 3609, 3608
8804, 3510, 3511, 3610, 3609
8805, 3511, 3512, 3611, 3610
8806, 3512, 3513, 3612, 3611
8807, 3513, 3514, 3613, 3612
8808, 3514, 3515, 3614, 3613
8809, 3515, 3516, 3615, 3614
8810, 3516, 3517, 3616, 3615
8811, 3517, 3518, 3617, 3616
8812, 3518, 3519, 3618, 3617
8813, 3519, 3520, 3619, 3618
8814, 3520, 3521, 3620, 3619
8815, 3521, 3522, 3621, 3620
8816, 3522, 3523, 3622, 3621
8817, 3523, 3524, 3623, 3622
8818, 3524, 3525, 3624, 3623
8819, 3525, 3526, 3625, 3624
8820, 3526, 3527, 3626, 3625
8821, 3527, 3528, 3627, 3626
8822, 3528, 3529, 3628, 3627
8823, 3529, 3530, 3629, 3628
8824, 3530, 3531, 3630, 3629
8825, 3531, 3532, 3631, 3630
8826, 3532, 3533, 3632, 3631
8827, 3533, 3534, 3633, 3632
8828, 3534, 3535, 3634, 3633
8829, 3535, 3536, 3635, 3634
8830, 3536, 3537, 3636, 3635
8831, 3537,  507,  508, 3636
8832, 532, 3538, 3637, 531
8833, 3538, 3539, 3638, 3637
8834, 3539, 3540, 3639, 3638
8835, 3540, 3541, 3640, 3639
8836, 3541, 3542, 3641, 3640
8837, 3542, 3543, 3642, 3641
8838, 3543, 3544, 3643, 3642
8839, 3544, 3545, 3644, 3643
8840, 3545, 3546, 3645, 3644
8841, 3546, 3547, 3646, 3645
8842, 3547, 3548, 3647, 3646
8843, 3548, 3549, 3648, 3647
8844, 3549, 3550, 3649, 3648
8845, 3550, 3551, 3650, 3649
8846, 3551, 3552, 3651, 3650
8847, 3552, 3553, 3652, 3651
8848, 3553, 3554, 3653, 3652
8849, 3554, 3555, 3654, 3653
8850, 3555, 3556, 3655, 3654
8851, 3556, 3557, 3656, 3655
8852, 3557, 3558, 3657, 3656
8853, 3558, 3559, 3658, 3657
8854, 3559, 3560, 3659, 3658
8855, 3560, 3561, 3660, 3659
8856, 3561, 3562, 3661, 3660
8857, 3562, 3563, 3662, 3661
8858, 3563, 3564, 3663, 3662
8859, 3564, 3565, 3664, 3663
8860, 3565, 3566, 3665, 3664
8861, 3566, 3567, 3666, 3665
8862, 3567, 3568, 3667, 3666
8863, 3568, 3569, 3668, 3667
8864, 3569, 3570, 3669, 3668
8865, 3570, 3571, 3670, 3669
8866, 3571, 3572, 3671, 3670
8867, 3572, 3573, 3672, 3671
8868, 3573, 3574, 3673, 3672
8869, 3574, 3575, 3674, 3673
8870, 3575, 3576, 3675, 3674
8871, 3576, 3577, 3676, 3675
8872, 3577, 3578, 3677, 3676
8873, 3578, 3579, 3678, 3677
8874, 3579, 3580, 3679, 3678
8875, 3580, 3581, 3680, 3679
8876, 3581, 3582, 3681, 3680
8877, 3582, 3583, 3682, 3681
8878, 3583, 3584, 3683, 3682
8879, 3584, 3585, 3684, 3683
8880, 3585, 3586, 3685, 3684
8881, 3586, 3587, 3686, 3685
8882, 3587, 3588, 3687, 3686
8883, 3588, 3589, 3688, 3687
8884, 3589, 3590, 3689, 3688
8885, 3590, 3591, 3690, 3689
8886, 3591, 3592, 3691, 3690
8887, 3592, 3593, 3692, 3691
8888, 3593, 3594, 3693, 3692
8889, 3594, 3595, 3694, 3693
8890, 3595, 3596, 3695, 3694
8891, 3596, 3597, 3696, 3695
8892, 3597, 3598, 3697, 3696
8893, 3598, 3599, 3698, 3697
8894, 3599, 3600, 3699, 3698
8895, 3600, 3601, 3700, 3699
8896, 3601, 3602, 3701, 3700
8897, 3602, 3603, 3702, 3701
8898, 3603, 3604, 3703, 3702
8899, 3604, 3605, 3704, 3703
8900, 3605, 3606, 3705, 3704
8901, 3606, 3607, 3706, 3705
8902, 3607, 3608, 3707, 3706
8903, 3608, 3609, 3708, 3707
8904, 3609, 3610, 3709, 3708
8905, 3610, 3611, 3710, 3709
8906, 3611, 3612, 3711, 3710
8907, 3612, 3613, 3712, 3711
8908, 3613, 3614, 3713, 3712
8909, 3614, 3615, 3714, 3713
8910, 3615, 3616, 3715, 3714
8911, 3616, 3617, 3716, 3715
8912, 3617, 3618, 3717, 3716
8913, 3618, 3619, 3718, 3717
8914, 3619, 3620, 3719, 3718
8915, 3620, 3621, 3720, 3719
8916, 3621, 3622, 3721, 3720
8917, 3622, 3623, 3722, 3721
8918, 3623, 3624, 3723, 3722
8919, 3624, 3625, 3724, 3723
8920, 3625, 3626, 3725, 3724
8921, 3626, 3627, 3726, 3725
8922, 3627, 3628, 3727, 3726
8923, 3628, 3629, 3728, 3727
8924, 3629, 3630, 3729, 3728
8925, 3630, 3631, 3730, 3729
8926, 3631, 3632, 3731, 3730
8927, 3632, 3633, 3732, 3731
8928, 3633, 3634, 3733, 3732
8929, 3634, 3635, 3734, 3733
8930, 3635, 3636, 3735, 3734
8931, 3636,  508,  509, 3735
8932, 531, 3637, 3736, 530
8933, 3637, 3638, 3737, 3736
8934, 3638, 3639, 3738, 3737
8935, 3639, 3640, 3739, 3738
8936, 3640, 3641, 3740, 3739
8937, 3641, 3642, 3741, 3740
8938, 3642, 3643, 3742, 3741
8939, 3643, 3644, 3743, 3742
8940, 3644, 3645, 3744, 3743
8941, 3645, 3646, 3745, 3744
8942, 3646, 3647, 3746, 3745
8943, 3647, 3648, 3747, 3746
8944, 3648, 3649, 3748, 3747
8945, 3649, 3650, 3749, 3748
8946, 3650, 3651, 3750, 3749
8947, 3651, 3652, 3751, 3750
8948, 3652, 3653, 3752, 3751
8949, 3653, 3654, 3753, 3752
8950, 3654, 3655, 3754, 3753
8951, 3655, 3656, 3755, 3754
8952, 3656, 3657, 3756, 3755
8953, 3657, 3658, 3757, 3756
8954, 3658, 3659, 3758, 3757
8955, 3659, 3660, 3759, 3758
8956, 3660, 3661, 3760, 3759
8957, 3661, 3662, 3761, 3760
8958, 3662, 3663, 3762, 3761
8959, 3663, 3664, 3763, 3762
8960, 3664, 3665, 3764, 3763
8961, 3665, 3666, 3765, 3764
8962, 3666, 3667, 3766, 3765
8963, 3667, 3668, 3767, 3766
8964, 3668, 3669, 3768, 3767
8965, 3669, 3670, 3769, 3768
8966, 3670, 3671, 3770, 3769
8967, 3671, 3672, 3771, 3770
8968, 3672, 3673, 3772, 3771
8969, 3673, 3674, 3773, 3772
8970, 3674, 3675, 3774, 3773
8971, 3675, 3676, 3775, 3774
8972, 3676, 3677, 3776, 3775
8973, 3677, 3678, 3777, 3776
8974, 3678, 3679, 3778, 3777
8975, 3679, 3680, 3779, 3778
8976, 3680, 3681, 3780, 3779
8977, 3681, 3682, 3781, 3780
8978, 3682, 3683, 3782, 3781
8979, 3683, 3684, 3783, 3782
8980, 3684, 3685, 3784, 3783
8981, 3685, 3686, 3785, 3784
8982, 3686, 3687, 3786, 3785
8983, 3687, 3688, 3787, 3786
8984, 3688, 3689, 3788, 3787
8985, 3689, 3690, 3789, 3788
8986, 3690, 3691, 3790, 3789
8987, 3691, 3692, 3791, 3790
8988, 3692, 3693, 3792, 3791
8989, 3693, 3694, 3793, 3792
8990, 3694, 3695, 3794, 3793
8991, 3695, 3696, 3795, 3794
8992, 3696, 3697, 3796, 3795
8993, 3697, 3698, 3797, 3796
8994, 3698, 3699, 3798, 3797
8995, 3699, 3700, 3799, 3798
8996, 3700, 3701, 3800, 3799
8997, 3701, 3702, 3801, 3800
8998, 3702, 3703, 3802, 3801
8999, 3703, 3704, 3803, 3802
9000, 3704, 3705, 3804, 3803
9001, 3705, 3706, 3805, 3804
9002, 3706, 3707, 3806, 3805
9003, 3707, 3708, 3807, 3806
9004, 3708, 3709, 3808, 3807
9005, 3709, 3710, 3809, 3808
9006, 3710, 3711, 3810, 3809
9007, 3711, 3712, 3811, 3810
9008, 3712, 3713, 3812, 3811
9009, 3713, 3714, 3813, 3812
9010, 3714, 3715, 3814, 3813
9011, 3715, 3716, 3815, 3814
9012, 3716, 3717, 3816, 3815
9013, 3717, 3718, 3817, 3816
9014, 3718, 3719, 3818, 3817
9015, 3719, 3720, 3819, 3818
9016, 3720, 3721, 3820, 3819
9017, 3721, 3722, 3821, 3820
9018, 3722, 3723, 3822, 3821
9019, 3723, 3724, 3823, 3822
9020, 3724, 3725, 3824, 3823
9021, 3725, 3726, 3825, 3824
9022, 3726, 3727, 3826, 3825
9023, 3727, 3728, 3827, 3826
9024, 3728, 3729, 3828, 3827
9025, 3729, 3730, 3829, 3828
9026, 3730, 3731, 3830, 3829
9027, 3731, 3732, 3831, 3830
9028, 3732, 3733, 3832, 3831
9029, 3733, 3734, 3833, 3832
9030, 3734, 3735, 3834, 3833
9031, 3735,  509,  510, 3834
9032, 530, 3736, 3835, 529
9033, 3736, 3737, 3836, 3835
9034, 3737, 3738, 3837, 3836
9035, 3738, 3739, 3838, 3837
9036, 3739, 3740, 3839, 3838
9037, 3740, 3741, 3840, 3839
9038, 3741, 3742, 3841, 3840
9039, 3742, 3743, 3842, 3841
9040, 3743, 3744, 3843, 3842
9041, 3744, 3745, 3844, 3843
9042, 3745, 3746, 3845, 3844
9043, 3746, 3747, 3846, 3845
9044, 3747, 3748, 3847, 3846
9045, 3748, 3749, 3848, 3847
9046, 3749, 3750, 3849, 3848
9047, 3750, 3751, 3850, 3849
9048, 3751, 3752, 3851, 3850
9049, 3752, 3753, 3852, 3851
9050, 3753, 3754, 3853, 3852
9051, 3754, 3755, 3854, 3853
9052, 3755, 3756, 3855, 3854
9053, 3756, 3757, 3856, 3855
9054, 3757, 3758, 3857, 3856
9055, 3758, 3759, 3858, 3857
9056, 3759, 3760, 3859, 3858
9057, 3760, 3761, 3860, 3859
9058, 3761, 3762, 3861, 3860
9059, 3762, 3763, 3862, 3861
9060, 3763, 3764, 3863, 3862
9061, 3764, 3765, 3864, 3863
9062, 3765, 3766, 3865, 3864
9063, 3766, 3767, 3866, 3865
9064, 3767, 3768, 3867, 3866
9065, 3768, 3769, 3868, 3867
9066, 3769, 3770, 3869, 3868
9067, 3770, 3771, 3870, 3869
9068, 3771, 3772, 3871, 3870
9069, 3772, 3773, 3872, 3871
9070, 3773, 3774, 3873, 3872
9071, 3774, 3775, 3874, 3873
9072, 3775, 3776, 3875, 3874
9073, 3776, 3777, 3876, 3875
9074, 3777, 3778, 3877, 3876
9075, 3778, 3779, 3878, 3877
9076, 3779, 3780, 3879, 3878
9077, 3780, 3781, 3880, 3879
9078, 3781, 3782, 3881, 3880
9079, 3782, 3783, 3882, 3881
9080, 3783, 3784, 3883, 3882
9081, 3784, 3785, 3884, 3883
9082, 3785, 3786, 3885, 3884
9083, 3786, 3787, 3886, 3885
9084, 3787, 3788, 3887, 3886
9085, 3788, 3789, 3888, 3887
9086, 3789, 3790, 3889, 3888
9087, 3790, 3791, 3890, 3889
9088, 3791, 3792, 3891, 3890
9089, 3792, 3793, 3892, 3891
9090, 3793, 3794, 3893, 3892
9091, 3794, 3795, 3894, 3893
9092, 3795, 3796, 3895, 3894
9093, 3796, 3797, 3896, 3895
9094, 3797, 3798, 3897, 3896
9095, 3798, 3799, 3898, 3897
9096, 3799, 3800, 3899, 3898
9097, 3800, 3801, 3900, 3899
9098, 3801, 3802, 3901, 3900
9099, 3802, 3803, 3902, 3901
9100, 3803, 3804, 3903, 3902
9101, 3804, 3805, 3904, 3903
9102, 3805, 3806, 3905, 3904
9103, 3806, 3807, 3906, 3905
9104, 3807, 3808, 3907, 3906
9105, 3808, 3809, 3908, 3907
9106, 3809, 3810, 3909, 3908
9107, 3810, 3811, 3910, 3909
9108, 3811, 3812, 3911, 3910
9109, 3812, 3813, 3912, 3911
9110, 3813, 3814, 3913, 3912
9111, 3814, 3815, 3914, 3913
9112, 3815, 3816, 3915, 3914
9113, 3816, 3817, 3916, 3915
9114, 3817, 3818, 3917, 3916
9115, 3818, 3819, 3918, 3917
9116, 3819, 3820, 3919, 3918
9117, 3820, 3821, 3920, 3919
9118, 3821, 3822, 3921, 3920
9119, 3822, 3823, 3922, 3921
9120, 3823, 3824, 3923, 3922
9121, 3824, 3825, 3924, 3923
9122, 3825, 3826, 3925, 3924
9123, 3826, 3827, 3926, 3925
9124, 3827, 3828, 3927, 3926
9125, 3828, 3829, 3928, 3927
9126, 3829, 3830, 3929, 3928
9127, 3830, 3831, 3930, 3929
9128, 3831, 3832, 3931, 3930
9129, 3832, 3833, 3932, 3931
9130, 3833, 3834, 3933, 3932
9131, 3834,  510,  511, 3933
9132, 529, 3835, 3934, 528
9133, 3835, 3836, 3935, 3934
9134, 3836, 3837, 3936, 3935
9135, 3837, 3838, 3937, 3936
9136, 3838, 3839, 3938, 3937
9137, 3839, 3840, 3939, 3938
9138, 3840, 3841, 3940, 3939
9139, 3841, 3842, 3941, 3940
9140, 3842, 3843, 3942, 3941
9141, 3843, 3844, 3943, 3942
9142, 3844, 3845, 3944, 3943
9143, 3845, 3846, 3945, 3944
9144, 3846, 3847, 3946, 3945
9145, 3847, 3848, 3947, 3946
9146, 3848, 3849, 3948, 3947
9147, 3849, 3850, 3949, 3948
9148, 3850, 3851, 3950, 3949
9149, 3851, 3852, 3951, 3950
9150, 3852, 3853, 3952, 3951
9151, 3853, 3854, 3953, 3952
9152, 3854, 3855, 3954, 3953
9153, 3855, 3856, 3955, 3954
9154, 3856, 3857, 3956, 3955
9155, 3857, 3858, 3957, 3956
9156, 3858, 3859, 3958, 3957
9157, 3859, 3860, 3959, 3958
9158, 3860, 3861, 3960, 3959
9159, 3861, 3862, 3961, 3960
9160, 3862, 3863, 3962, 3961
9161, 3863, 3864, 3963, 3962
9162, 3864, 3865, 3964, 3963
9163, 3865, 3866, 3965, 3964
9164, 3866, 3867, 3966, 3965
9165, 3867, 3868, 3967, 3966
9166, 3868, 3869, 3968, 3967
9167, 3869, 3870, 3969, 3968
9168, 3870, 3871, 3970, 3969
9169, 3871, 3872, 3971, 3970
9170, 3872, 3873, 3972, 3971
9171, 3873, 3874, 3973, 3972
9172, 3874, 3875, 3974, 3973
9173, 3875, 3876, 3975, 3974
9174, 3876, 3877, 3976, 3975
9175, 3877, 3878, 3977, 3976
9176, 3878, 3879, 3978, 3977
9177, 3879, 3880, 3979, 3978
9178, 3880, 3881, 3980, 3979
9179, 3881, 3882, 3981, 3980
9180, 3882, 3883, 3982, 3981
9181, 3883, 3884, 3983, 3982
9182, 3884, 3885, 3984, 3983
9183, 3885, 3886, 3985, 3984
9184, 3886, 3887, 3986, 3985
9185, 3887, 3888, 3987, 3986
9186, 3888, 3889, 3988, 3987
9187, 3889, 3890, 3989, 3988
9188, 3890, 3891, 3990, 3989
9189, 3891, 3892, 3991, 3990
9190, 3892, 3893, 3992, 3991
9191, 3893, 3894, 3993, 3992
9192, 3894, 3895, 3994, 3993
9193, 3895, 3896, 3995, 3994
9194, 3896, 3897, 3996, 3995
9195, 3897, 3898, 3997, 3996
9196, 3898, 3899, 3998, 3997
9197, 3899, 3900, 3999, 3998
9198, 3900, 3901, 4000, 3999
9199, 3901, 3902, 4001, 4000
9200, 3902, 3903, 4002, 4001
9201, 3903, 3904, 4003, 4002
9202, 3904, 3905, 4004, 4003
9203, 3905, 3906, 4005, 4004
9204, 3906, 3907, 4006, 4005
9205, 3907, 3908, 4007, 4006
9206, 3908, 3909, 4008, 4007
9207, 3909, 3910, 4009, 4008
9208, 3910, 3911, 4010, 4009
9209, 3911, 3912, 4011, 4010
9210, 3912, 3913, 4012, 4011
9211, 3913, 3914, 4013, 4012
9212, 3914, 3915, 4014, 4013
9213, 3915, 3916, 4015, 4014
9214, 3916, 3917, 4016, 4015
9215, 3917, 3918, 4017, 4016
9216, 3918, 3919, 4018, 4017
9217, 3919, 3920, 4019, 4018
9218, 3920, 3921, 4020, 4019
9219, 3921, 3922, 4021, 4020
9220, 3922, 3923, 4022, 4021
9221, 3923, 3924, 4023, 4022
9222, 3924, 3925, 4024, 4023
9223, 3925, 3926, 4025, 4024
9224, 3926, 3927, 4026, 4025
9225, 3927, 3928, 4027, 4026
9226, 3928, 3929, 4028, 4027
9227, 3929, 3930, 4029, 4028
9228, 3930, 3931, 4030, 4029
9229, 3931, 3932, 4031, 4030
9230, 3932, 3933, 4032, 4031
9231, 3933,  511,  512, 4032
9232, 528, 3934, 4033, 527
9233, 3934, 3935, 4034, 4033
9234, 3935, 3936, 4035, 4034
9235, 3936, 3937, 4036, 4035
9236, 3937, 3938, 4037, 4036
9237, 3938, 3939, 4038, 4037
9238, 3939, 3940, 4039, 4038
9239, 3940, 3941, 4040, 4039
9240, 3941, 3942, 4041, 4040
9241, 3942, 3943, 4042, 4041
9242, 3943, 3944, 4043, 4042
9243, 3944, 3945, 4044, 4043
9244, 3945, 3946, 4045, 4044
9245, 3946, 3947, 4046, 4045
9246, 3947, 3948, 4047, 4046
9247, 3948, 3949, 4048, 4047
9248, 3949, 3950, 4049, 4048
9249, 3950, 3951, 4050, 4049
9250, 3951, 3952, 4051, 4050
9251, 3952, 3953, 4052, 4051
9252, 3953, 3954, 4053, 4052
9253, 3954, 3955, 4054, 4053
9254, 3955, 3956, 4055, 4054
9255, 3956, 3957, 4056, 4055
9256, 3957, 3958, 4057, 4056
9257, 3958, 3959, 4058, 4057
9258, 3959, 3960, 4059, 4058
9259, 3960, 3961, 4060, 4059
9260, 3961, 3962, 4061, 4060
9261, 3962, 3963, 4062, 4061
9262, 3963, 3964, 4063, 4062
9263, 3964, 3965, 4064, 4063
9264, 3965, 3966, 4065, 4064
9265, 3966, 3967, 4066, 4065
9266, 3967, 3968, 4067, 4066
9267, 3968, 3969, 4068, 4067
9268, 3969, 3970, 4069, 4068
9269, 3970, 3971, 4070, 4069
9270, 3971, 3972, 4071, 4070
9271, 3972, 3973, 4072, 4071
9272, 3973, 3974, 4073, 4072
9273, 3974, 3975, 4074, 4073
9274, 3975, 3976, 4075, 4074
9275, 3976, 3977, 4076, 4075
9276, 3977, 3978, 4077, 4076
9277, 3978, 3979, 4078, 4077
9278, 3979, 3980, 4079, 4078
9279, 3980, 3981, 4080, 4079
9280, 3981, 3982, 4081, 4080
9281, 3982, 3983, 4082, 4081
9282, 3983, 3984, 4083, 4082
9283, 3984, 3985, 4084, 4083
9284, 3985, 3986, 4085, 4084
9285, 3986, 3987, 4086, 4085
9286, 3987, 3988, 4087, 4086
9287, 3988, 3989, 4088, 4087
9288, 3989, 3990, 4089, 4088
9289, 3990, 3991, 4090, 4089
9290, 3991, 3992, 4091, 4090
9291, 3992, 3993, 4092, 4091
9292, 3993, 3994, 4093, 4092
9293, 3994, 3995, 4094, 4093
9294, 3995, 3996, 4095, 4094
9295, 3996, 3997, 4096, 4095
9296, 3997, 3998, 4097, 4096
9297, 3998, 3999, 4098, 4097
9298, 3999, 4000, 4099, 4098
9299, 4000, 4001, 4100, 4099
9300, 4001, 4002, 4101, 4100
9301, 4002, 4003, 4102, 4101
9302, 4003, 4004, 4103, 4102
9303, 4004, 4005, 4104, 4103
9304, 4005, 4006, 4105, 4104
9305, 4006, 4007, 4106, 4105
9306, 4007, 4008, 4107, 4106
9307, 4008, 4009, 4108, 4107
9308, 4009, 4010, 4109, 4108
9309, 4010, 4011, 4110, 4109
9310, 4011, 4012, 4111, 4110
9311, 4012, 4013, 4112, 4111
9312, 4013, 4014, 4113, 4112
9313, 4014, 4015, 4114, 4113
9314, 4015, 4016, 4115, 4114
9315, 4016, 4017, 4116, 4115
9316, 4017, 4018, 4117, 4116
9317, 4018, 4019, 4118, 4117
9318, 4019, 4020, 4119, 4118
9319, 4020, 4021, 4120, 4119
9320, 4021, 4022, 4121, 4120
9321, 4022, 4023, 4122, 4121
9322, 4023, 4024, 4123, 4122
9323, 4024, 4025, 4124, 4123
9324, 4025, 4026, 4125, 4124
9325, 4026, 4027, 4126, 4125
9326, 4027, 4028, 4127, 4126
9327, 4028, 4029, 4128, 4127
9328, 4029, 4030, 4129, 4128
9329, 4030, 4031, 4130, 4129
9330, 4031, 4032, 4131, 4130
9331, 4032,  512,  513, 4131
9332, 527, 4033, 4132, 526
9333, 4033, 4034, 4133, 4132
9334, 4034, 4035, 4134, 4133
9335, 4035, 4036, 4135, 4134
9336, 4036, 4037, 4136, 4135
9337, 4037, 4038, 4137, 4136
9338, 4038, 4039, 4138, 4137
9339, 4039, 4040, 4139, 4138
9340, 4040, 4041, 4140, 4139
9341, 4041, 4042, 4141, 4140
9342, 4042, 4043, 4142, 4141
9343, 4043, 4044, 4143, 4142
9344, 4044, 4045, 4144, 4143
9345, 4045, 4046, 4145, 4144
9346, 4046, 4047, 4146, 4145
9347, 4047, 4048, 4147, 4146
9348, 4048, 4049, 4148, 4147
9349, 4049, 4050, 4149, 4148
9350, 4050, 4051, 4150, 4149
9351, 4051, 4052, 4151, 4150
9352, 4052, 4053, 4152, 4151
9353, 4053, 4054, 4153, 4152
9354, 4054, 4055, 4154, 4153
9355, 4055, 4056, 4155, 4154
9356, 4056, 4057, 4156, 4155
9357, 4057, 4058, 4157, 4156
9358, 4058, 4059, 4158, 4157
9359, 4059, 4060, 4159, 4158
9360, 4060, 4061, 4160, 4159
9361, 4061, 4062, 4161, 4160
9362, 4062, 4063, 4162, 4161
9363, 4063, 4064, 4163, 4162
9364, 4064, 4065, 4164, 4163
9365, 4065, 4066, 4165, 4164
9366, 4066, 4067, 4166, 4165
9367, 4067, 4068, 4167, 4166
9368, 4068, 4069, 4168, 4167
9369, 4069, 4070, 4169, 4168
9370, 4070, 4071, 4170, 4169
9371, 4071, 4072, 4171, 4170
9372, 4072, 4073, 4172, 4171
9373, 4073, 4074, 4173, 4172
9374, 4074, 4075, 4174, 4173
9375, 4075, 4076, 4175, 4174
9376, 4076, 4077, 4176, 4175
9377, 4077, 4078, 4177, 4176
9378, 4078, 4079, 4178, 4177
9379, 4079, 4080, 4179, 4178
9380, 4080, 4081, 4180, 4179
9381, 4081, 4082, 4181, 4180
9382, 4082, 4083, 4182, 4181
9383, 4083, 4084, 4183, 4182
9384, 4084, 4085, 4184, 4183
9385, 4085, 4086, 4185, 4184
9386, 4086, 4087, 4186, 4185
9387, 4087, 4088, 4187, 4186
9388, 4088, 4089, 4188, 4187
9389, 4089, 4090, 4189, 4188
9390, 4090, 4091, 4190, 4189
9391, 4091, 4092, 4191, 4190
9392, 4092, 4093, 4192, 4191
9393, 4093, 4094, 4193, 4192
9394, 4094, 4095, 4194, 4193
9395, 4095, 4096, 4195, 4194
9396, 4096, 4097, 4196, 4195
9397, 4097, 4098, 4197, 4196
9398, 4098, 4099, 4198, 4197
9399, 4099, 4100, 4199, 4198
9400, 4100, 4101, 4200, 4199
9401, 4101, 4102, 4201, 4200
9402, 4102, 4103, 4202, 4201
9403, 4103, 4104, 4203, 4202
9404, 4104, 4105, 4204, 4203
9405, 4105, 4106, 4205, 4204
9406, 4106, 4107, 4206, 4205
9407, 4107, 4108, 4207, 4206
9408, 4108, 4109, 4208, 4207
9409, 4109, 4110, 4209, 4208
9410, 4110, 4111, 4210, 4209
9411, 4111, 4112, 4211, 4210
9412, 4112, 4113, 4212, 4211
9413, 4113, 4114, 4213, 4212
9414, 4114, 4115, 4214, 4213
9415, 4115, 4116, 4215, 4214
9416, 4116, 4117, 4216, 4215
9417, 4117, 4118, 4217, 4216
9418, 4118, 4119, 4218, 4217
9419, 4119, 4120, 4219, 4218
9420, 4120, 4121, 4220, 4219
9421, 4121, 4122, 4221, 4220
9422, 4122, 4123, 4222, 4221
9423, 4123, 4124, 4223, 4222
9424, 4124, 4125, 4224, 4223
9425, 4125, 4126, 4225, 4224
9426, 4126, 4127, 4226, 4225
9427, 4127, 4128, 4227, 4226
9428, 4128, 4129, 4228, 4227
9429, 4129, 4130, 4229, 4228
9430, 4130, 4131, 4230, 4229
9431, 4131,  513,  514, 4230
9432, 526, 4132, 4231, 525
9433, 4132, 4133, 4232, 4231
9434, 4133, 4134, 4233, 4232
9435, 4134, 4135, 4234, 4233
9436, 4135, 4136, 4235, 4234
9437, 4136, 4137, 4236, 4235
9438, 4137, 4138, 4237, 4236
9439, 4138, 4139, 4238, 4237
9440, 4139, 4140, 4239, 4238
9441, 4140, 4141, 4240, 4239
9442, 4141, 4142, 4241, 4240
9443, 4142, 4143, 4242, 4241
9444, 4143, 4144, 4243, 4242
9445, 4144, 4145, 4244, 4243
9446, 4145, 4146, 4245, 4244
9447, 4146, 4147, 4246, 4245
9448, 4147, 4148, 4247, 4246
9449, 4148, 4149, 4248, 4247
9450, 4149, 4150, 4249, 4248
9451, 4150, 4151, 4250, 4249
9452, 4151, 4152, 4251, 4250
9453, 4152, 4153, 4252, 4251
9454, 4153, 4154, 4253, 4252
9455, 4154, 4155, 4254, 4253
9456, 4155, 4156, 4255, 4254
9457, 4156, 4157, 4256, 4255
9458, 4157, 4158, 4257, 4256
9459, 4158, 4159, 4258, 4257
9460, 4159, 4160, 4259, 4258
9461, 4160, 4161, 4260, 4259
9462, 4161, 4162, 4261, 4260
9463, 4162, 4163, 4262, 4261
9464, 4163, 4164, 4263, 4262
9465, 4164, 4165, 4264, 4263
9466, 4165, 4166, 4265, 4264
9467, 4166, 4167, 4266, 4265
9468, 4167, 4168, 4267, 4266
9469, 4168, 4169, 4268, 4267
9470, 4169, 4170, 4269, 4268
9471, 4170, 4171, 4270, 4269
9472, 4171, 4172, 4271, 4270
9473, 4172, 4173, 4272, 4271
9474, 4173, 4174, 4273, 4272
9475, 4174, 4175, 4274, 4273
9476, 4175, 4176, 4275, 4274
9477, 4176, 4177, 4276, 4275
9478, 4177, 4178, 4277, 4276
9479, 4178, 4179, 4278, 4277
9480, 4179, 4180, 4279, 4278
9481, 4180, 4181, 4280, 4279
9482, 4181, 4182, 4281, 4280
9483, 4182, 4183, 4282, 4281
9484, 4183, 4184, 4283, 4282
9485, 4184, 4185, 4284, 4283
9486, 4185, 4186, 4285, 4284
9487, 4186, 4187, 4286, 4285
9488, 4187, 4188, 4287, 4286
9489, 4188, 4189, 4288, 4287
9490, 4189, 4190, 4289, 4288
9491, 4190, 4191, 4290, 4289
9492, 4191, 4192, 4291, 4290
9493, 4192, 4193, 4292, 4291
9494, 4193, 4194, 4293, 4292
9495, 4194, 4195, 4294, 4293
9496, 4195, 4196, 4295, 4294
9497, 4196, 4197, 4296, 4295
9498, 4197, 4198, 4297, 4296
9499, 4198, 4199, 4298, 4297
9500, 4199, 4200, 4299, 4298
9501, 4200, 4201, 4300, 4299
9502, 4201, 4202, 4301, 4300
9503, 4202, 4203, 4302, 4301
9504, 4203, 4204, 4303, 4302
9505, 4204, 4205, 4304, 4303
9506, 4205, 4206, 4305, 4304
9507, 4206, 4207, 4306, 4305
9508, 4207, 4208, 4307, 4306
9509, 4208, 4209, 4308, 4307
9510, 4209, 4210, 4309, 4308
9511, 4210, 4211, 4310, 4309
9512, 4211, 4212, 4311, 4310
9513, 4212, 4213, 4312, 4311
9514, 4213, 4214, 4313, 4312
9515, 4214, 4215, 4314, 4313
9516, 4215, 4216, 4315, 4314
9517, 4216, 4217, 4316, 4315
9518, 4217, 4218, 4317, 4316
9519, 4218, 4219, 4318, 4317
9520, 4219, 4220, 4319, 4318
9521, 4220, 4221, 4320, 4319
9522, 4221, 4222, 4321, 4320
9523, 4222, 4223, 4322, 4321
9524, 4223, 4224, 4323, 4322
9525, 4224, 4225, 4324, 4323
9526, 4225, 4226, 4325, 4324
9527, 4226, 4227, 4326, 4325
9528, 4227, 4228, 4327, 4326
9529, 4228, 4229, 4328, 4327
9530, 4229, 4230, 4329, 4328
9531, 4230,  514,  515, 4329
9532, 525, 4231, 4330, 14
9533, 4231, 4232, 4331, 4330
9534, 4232, 4233, 4332, 4331
9535, 4233, 4234, 4333, 4332
9536, 4234, 4235, 4334, 4333
9537, 4235, 4236, 4335, 4334
9538, 4236, 4237, 4336, 4335
9539, 4237, 4238, 4337, 4336
9540, 4238, 4239, 4338, 4337
9541, 4239, 4240, 4339, 4338
9542, 4240, 4241, 4340, 4339
9543, 4241, 4242, 4341, 4340
9544, 4242, 4243, 4342, 4341
9545, 4243, 4244, 4343, 4342
9546, 4244, 4245, 4344, 4343
9547, 4245, 4246, 4345, 4344
9548, 4246, 4247, 4346, 4345
9549, 4247, 4248, 4347, 4346
9550, 4248, 4249, 4348, 4347
9551, 4249, 4250, 4349, 4348
9552, 4250, 4251, 4350, 4349
9553, 4251, 4252, 4351, 4350
9554, 4252, 4253, 4352, 4351
9555, 4253, 4254, 4353, 4352
9556, 4254, 4255, 4354, 4353
9557, 4255, 4256, 4355, 4354
9558, 4256, 4257, 4356, 4355
9559, 4257, 4258, 4357, 4356
9560, 4258, 4259, 4358, 4357
9561, 4259, 4260, 4359, 4358
9562, 4260, 4261, 4360, 4359
9563, 4261, 4262, 4361, 4360
9564, 4262, 4263, 4362, 4361
9565, 4263, 4264, 4363, 4362
9566, 4264, 4265, 4364, 4363
9567, 4265, 4266, 4365, 4364
9568, 4266, 4267, 4366, 4365
9569, 4267, 4268, 4367, 4366
9570, 4268, 4269, 4368, 4367
9571, 4269, 4270, 4369, 4368
9572, 4270, 4271, 4370, 4369
9573, 4271, 4272, 4371, 4370
9574, 4272, 4273, 4372, 4371
9575, 4273, 4274, 4373, 4372
9576, 4274, 4275, 4374, 4373
9577, 4275, 4276, 4375, 4374
9578, 4276, 4277, 4376, 4375
9579, 4277, 4278, 4377, 4376
9580, 4278, 4279, 4378, 4377
9581, 4279, 4280, 4379, 4378
9582, 4280, 4281, 4380, 4379
9583, 4281, 4282, 4381, 4380
9584, 4282, 4283, 4382, 4381
9585, 4283, 4284, 4383, 4382
9586, 4284, 4285, 4384, 4383
9587, 4285, 4286, 4385, 4384
9588, 4286, 4287, 4386, 4385
9589, 4287, 4288, 4387, 4386
9590, 4288, 4289, 4388, 4387
9591, 4289, 4290, 4389, 4388
9592, 4290, 4291, 4390, 4389
9593, 4291, 4292, 4391, 4390
9594, 4292, 4293, 4392, 4391
9595, 4293, 4294, 4393, 4392
9596, 4294, 4295, 4394, 4393
9597, 4295, 4296, 4395, 4394
9598, 4296, 4297, 4396, 4395
9599, 4297, 4298, 4397, 4396
9600, 4298, 4299, 4398, 4397
9601, 4299, 4300, 4399, 4398
9602, 4300, 4301, 4400, 4399
9603, 4301, 4302, 4401, 4400
9604, 4302, 4303, 4402, 4401
9605, 4303, 4304, 4403, 4402
9606, 4304, 4305, 4404, 4403
9607, 4305, 4306, 4405, 4404
9608, 4306, 4307, 4406, 4405
9609, 4307, 4308, 4407, 4406
9610, 4308, 4309, 4408, 4407
9611, 4309, 4310, 4409, 4408
9612, 4310, 4311, 4410, 4409
9613, 4311, 4312, 4411, 4410
9614, 4312, 4313, 4412, 4411
9615, 4313, 4314, 4413, 4412
9616, 4314, 4315, 4414, 4413
9617, 4315, 4316, 4415, 4414
9618, 4316, 4317, 4416, 4415
9619, 4317, 4318, 4417, 4416
9620, 4318, 4319, 4418, 4417
9621, 4319, 4320, 4419, 4418
9622, 4320, 4321, 4420, 4419
9623, 4321, 4322, 4421, 4420
9624, 4322, 4323, 4422, 4421
9625, 4323, 4324, 4423, 4422
9626, 4324, 4325, 4424, 4423
9627, 4325, 4326, 4425, 4424
9628, 4326, 4327, 4426, 4425
9629, 4327, 4328, 4427, 4426
9630, 4328, 4329, 4428, 4427
9631, 4329,  515,  516, 4428
9632, 14, 4330, 4429, 268
9633, 4330, 4331, 4430, 4429
9634, 4331, 4332, 4431, 4430
9635, 4332, 4333, 4432, 4431
9636, 4333, 4334, 4433, 4432
9637, 4334, 4335, 4434, 4433
9638, 4335, 4336, 4435, 4434
9639, 4336, 4337, 4436, 4435
9640, 4337, 4338, 4437, 4436
9641, 4338, 4339, 4438, 4437
9642, 4339, 4340, 4439, 4438
9643, 4340, 4341, 4440, 4439
9644, 4341, 4342, 4441, 4440
9645, 4342, 4343, 4442, 4441
9646, 4343, 4344, 4443, 4442
9647, 4344, 4345, 4444, 4443
9648, 4345, 4346, 4445, 4444
9649, 4346, 4347, 4446, 4445
9650, 4347, 4348, 4447, 4446
9651, 4348, 4349, 4448, 4447
9652, 4349, 4350, 4449, 4448
9653, 4350, 4351, 4450, 4449
9654, 4351, 4352, 4451, 4450
9655, 4352, 4353, 4452, 4451
9656, 4353, 4354, 4453, 4452
9657, 4354, 4355, 4454, 4453
9658, 4355, 4356, 4455, 4454
9659, 4356, 4357, 4456, 4455
9660, 4357, 4358, 4457, 4456
9661, 4358, 4359, 4458, 4457
9662, 4359, 4360, 4459, 4458
9663, 4360, 4361, 4460, 4459
9664, 4361, 4362, 4461, 4460
9665, 4362, 4363, 4462, 4461
9666, 4363, 4364, 4463, 4462
9667, 4364, 4365, 4464, 4463
9668, 4365, 4366, 4465, 4464
9669, 4366, 4367, 4466, 4465
9670, 4367, 4368, 4467, 4466
9671, 4368, 4369, 4468, 4467
9672, 4369, 4370, 4469, 4468
9673, 4370, 4371, 4470, 4469
9674, 4371, 4372, 4471, 4470
9675, 4372, 4373, 4472, 4471
9676, 4373, 4374, 4473, 4472
9677, 4374, 4375, 4474, 4473
9678, 4375, 4376, 4475, 4474
9679, 4376, 4377, 4476, 4475
9680, 4377, 4378, 4477, 4476
9681, 4378, 4379, 4478, 4477
9682, 4379, 4380, 4479, 4478
9683, 4380, 4381, 4480, 4479
9684, 4381, 4382, 4481, 4480
9685, 4382, 4383, 4482, 4481
9686, 4383, 4384, 4483, 4482
9687, 4384, 4385, 4484, 4483
9688, 4385, 4386, 4485, 4484
9689, 4386, 4387, 4486, 4485
9690, 4387, 4388, 4487, 4486
9691, 4388, 4389, 4488, 4487
9692, 4389, 4390, 4489, 4488
9693, 4390, 4391, 4490, 4489
9694, 4391, 4392, 4491, 4490
9695, 4392, 4393, 4492, 4491
9696, 4393, 4394, 4493, 4492
9697, 4394, 4395, 4494, 4493
9698, 4395, 4396, 4495, 4494
9699, 4396, 4397, 4496, 4495
9700, 4397, 4398, 4497, 4496
9701, 4398, 4399, 4498, 4497
9702, 4399, 4400, 4499, 4498
9703, 4400, 4401, 4500, 4499
9704, 4401, 4402, 4501, 4500
9705, 4402, 4403, 4502, 4501
9706, 4403, 4404, 4503, 4502
9707, 4404, 4405, 4504, 4503
9708, 4405, 4406, 4505, 4504
9709, 4406, 4407, 4506, 4505
9710, 4407, 4408, 4507, 4506
9711, 4408, 4409, 4508, 4507
9712, 4409, 4410, 4509, 4508
9713, 4410, 4411, 4510, 4509
9714, 4411, 4412, 4511, 4510
9715, 4412, 4413, 4512, 4511
9716, 4413, 4414, 4513, 4512
9717, 4414, 4415, 4514, 4513
9718, 4415, 4416, 4515, 4514
9719, 4416, 4417, 4516, 4515
9720, 4417, 4418, 4517, 4516
9721, 4418, 4419, 4518, 4517
9722, 4419, 4420, 4519, 4518
9723, 4420, 4421, 4520, 4519
9724, 4421, 4422, 4521, 4520
9725, 4422, 4423, 4522, 4521
9726, 4423, 4424, 4523, 4522
9727, 4424, 4425, 4524, 4523
9728, 4425, 4426, 4525, 4524
9729, 4426, 4427, 4526, 4525
9730, 4427, 4428, 4527, 4526
9731, 4428,  516,  517, 4527
9732, 268, 4429, 4528, 269
9733, 4429, 4430, 4529, 4528
9734, 4430, 4431, 4530, 4529
9735, 4431, 4432, 4531, 4530
9736, 4432, 4433, 4532, 4531
9737, 4433, 4434, 4533, 4532
9738, 4434, 4435, 4534, 4533
9739, 4435, 4436, 4535, 4534
9740, 4436, 4437, 4536, 4535
9741, 4437, 4438, 4537, 4536
9742, 4438, 4439, 4538, 4537
9743, 4439, 4440, 4539, 4538
9744, 4440, 4441, 4540, 4539
9745, 4441, 4442, 4541, 4540
9746, 4442, 4443, 4542, 4541
9747, 4443, 4444, 4543, 4542
9748, 4444, 4445, 4544, 4543
9749, 4445, 4446, 4545, 4544
9750, 4446, 4447, 4546, 4545
9751, 4447, 4448, 4547, 4546
9752, 4448, 4449, 4548, 4547
9753, 4449, 4450, 4549, 4548
9754, 4450, 4451, 4550, 4549
9755, 4451, 4452, 4551, 4550
9756, 4452, 4453, 4552, 4551
9757, 4453, 4454, 4553, 4552
9758, 4454, 4455, 4554, 4553
9759, 4455, 4456, 4555, 4554
9760, 4456, 4457, 4556, 4555
9761, 4457, 4458, 4557, 4556
9762, 4458, 4459, 4558, 4557
9763, 4459, 4460, 4559, 4558
9764, 4460, 4461, 4560, 4559
9765, 4461, 4462, 4561, 4560
9766, 4462, 4463, 4562, 4561
9767, 4463, 4464, 4563, 4562
9768, 4464, 4465, 4564, 4563
9769, 4465, 4466, 4565, 4564
9770, 4466, 4467, 4566, 4565
9771, 4467, 4468, 4567, 4566
9772, 4468, 4469, 4568, 4567
9773, 4469, 4470, 4569, 4568
9774, 4470, 4471, 4570, 4569
9775, 4471, 4472, 4571, 4570
9776, 4472, 4473, 4572, 4571
9777, 4473, 4474, 4573, 4572
9778, 4474, 4475, 4574, 4573
9779, 4475, 4476, 4575, 4574
9780, 4476, 4477, 4576, 4575
9781, 4477, 4478, 4577, 4576
9782, 4478, 4479, 4578, 4577
9783, 4479, 4480, 4579, 4578
9784, 4480, 4481, 4580, 4579
9785, 4481, 4482, 4581, 4580
9786, 4482, 4483, 4582, 4581
9787, 4483, 4484, 4583, 4582
9788, 4484, 4485, 4584, 4583
9789, 4485, 4486, 4585, 4584
9790, 4486, 4487, 4586, 4585
9791, 4487, 4488, 4587, 4586
9792, 4488, 4489, 4588, 4587
9793, 4489, 4490, 4589, 4588
9794, 4490, 4491, 4590, 4589
9795, 4491, 4492, 4591, 4590
9796, 4492, 4493, 4592, 4591
9797, 4493, 4494, 4593, 4592
9798, 4494, 4495, 4594, 4593
9799, 4495, 4496, 4595, 4594
9800, 4496, 4497, 4596, 4595
9801, 4497, 4498, 4597, 4596
9802, 4498, 4499, 4598, 4597
9803, 4499, 4500, 4599, 4598
9804, 4500, 4501, 4600, 4599
9805, 4501, 4502, 4601, 4600
9806, 4502, 4503, 4602, 4601
9807, 4503, 4504, 4603, 4602
9808, 4504, 4505, 4604, 4603
9809, 4505, 4506, 4605, 4604
9810, 4506, 4507, 4606, 4605
9811, 4507, 4508, 4607, 4606
9812, 4508, 4509, 4608, 4607
9813, 4509, 4510, 4609, 4608
9814, 4510, 4511, 4610, 4609
9815, 4511, 4512, 4611, 4610
9816, 4512, 4513, 4612, 4611
9817, 4513, 4514, 4613, 4612
9818, 4514, 4515, 4614, 4613
9819, 4515, 4516, 4615, 4614
9820, 4516, 4517, 4616, 4615
9821, 4517, 4518, 4617, 4616
9822, 4518, 4519, 4618, 4617
9823, 4519, 4520, 4619, 4618
9824, 4520, 4521, 4620, 4619
9825, 4521, 4522, 4621, 4620
9826, 4522, 4523, 4622, 4621
9827, 4523, 4524, 4623, 4622
9828, 4524, 4525, 4624, 4623
9829, 4525, 4526, 4625, 4624
9830, 4526, 4527, 4626, 4625
9831, 4527,  517,  518, 4626
9832, 269, 4528, 4627, 270
9833, 4528, 4529, 4628, 4627
9834, 4529, 4530, 4629, 4628
9835, 4530, 4531, 4630, 4629
9836, 4531, 4532, 4631, 4630
9837, 4532, 4533, 4632, 4631
9838, 4533, 4534, 4633, 4632
9839, 4534, 4535, 4634, 4633
9840, 4535, 4536, 4635, 4634
9841, 4536, 4537, 4636, 4635
9842, 4537, 4538, 4637, 4636
9843, 4538, 4539, 4638, 4637
9844, 4539, 4540, 4639, 4638
9845, 4540, 4541, 4640, 4639
9846, 4541, 4542, 4641, 4640
9847, 4542, 4543, 4642, 4641
9848, 4543, 4544, 4643, 4642
9849, 4544, 4545, 4644, 4643
9850, 4545, 4546, 4645, 4644
9851, 4546, 4547, 4646, 4645
9852, 4547, 4548, 4647, 4646
9853, 4548, 4549, 4648, 4647
9854, 4549, 4550, 4649, 4648
9855, 4550, 4551, 4650, 4649
9856, 4551, 4552, 4651, 4650
9857, 4552, 4553, 4652, 4651
9858, 4553, 4554, 4653, 4652
9859, 4554, 4555, 4654, 4653
9860, 4555, 4556, 4655, 4654
9861, 4556, 4557, 4656, 4655
9862, 4557, 4558, 4657, 4656
9863, 4558, 4559, 4658, 4657
9864, 4559, 4560, 4659, 4658
9865, 4560, 4561, 4660, 4659
9866, 4561, 4562, 4661, 4660
9867, 4562, 4563, 4662, 4661
9868, 4563, 4564, 4663, 4662
9869, 4564, 4565, 4664, 4663
9870, 4565, 4566, 4665, 4664
9871, 4566, 4567, 4666, 4665
9872, 4567, 4568, 4667, 4666
9873, 4568, 4569, 4668, 4667
9874, 4569, 4570, 4669, 4668
9875, 4570, 4571, 4670, 4669
9876, 4571, 4572, 4671, 4670
9877, 4572, 4573, 4672, 4671
9878, 4573, 4574, 4673, 4672
9879, 4574, 4575, 4674, 4673
9880, 4575, 4576, 4675, 4674
9881, 4576, 4577, 4676, 4675
9882, 4577, 4578, 4677, 4676
9883, 4578, 4579, 4678, 4677
9884, 4579, 4580, 4679, 4678
9885, 4580, 4581, 4680, 4679
9886, 4581, 4582, 4681, 4680
9887, 4582, 4583, 4682, 4681
9888, 4583, 4584, 4683, 4682
9889, 4584, 4585, 4684, 4683
9890, 4585, 4586, 4685, 4684
9891, 4586, 4587, 4686, 4685
9892, 4587, 4588, 4687, 4686
9893, 4588, 4589, 4688, 4687
9894, 4589, 4590, 4689, 4688
9895, 4590, 4591, 4690, 4689
9896, 4591, 4592, 4691, 4690
9897, 4592, 4593, 4692, 4691
9898, 4593, 4594, 4693, 4692
9899, 4594, 4595, 4694, 4693
9900, 4595, 4596, 4695, 4694
9901, 4596, 4597, 4696, 4695
9902, 4597, 4598, 4697, 4696
9903, 4598, 4599, 4698, 4697
9904, 4599, 4600, 4699, 4698
9905, 4600, 4601, 4700, 4699
9906, 4601, 4602, 4701, 4700
9907, 4602, 4603, 4702, 4701
9908, 4603, 4604, 4703, 4702
9909, 4604, 4605, 4704, 4703
9910, 4605, 4606, 4705, 4704
9911, 4606, 4607, 4706, 4705
9912, 4607, 4608, 4707, 4706
9913, 4608, 4609, 4708, 4707
9914, 4609, 4610, 4709, 4708
9915, 4610, 4611, 4710, 4709
9916, 4611, 4612, 4711, 4710
9917, 4612, 4613, 4712, 4711
9918, 4613, 4614, 4713, 4712
9919, 4614, 4615, 4714, 4713
9920, 4615, 4616, 4715, 4714
9921, 4616, 4617, 4716, 4715
9922, 4617, 4618, 4717, 4716
9923, 4618, 4619, 4718, 4717
9924, 4619, 4620, 4719, 4718
9925, 4620, 4621, 4720, 4719
9926, 4621, 4622, 4721, 4720
9927, 4622, 4623, 4722, 4721
9928, 4623, 4624, 4723, 4722
9929, 4624, 4625, 4724, 4723
9930, 4625, 4626, 4725, 4724
9931, 4626,  518,   23, 4725
9932, 270, 4627, 4726, 271
9933, 4627, 4628, 4727, 4726
9934, 4628, 4629, 4728, 4727
9935, 4629, 4630, 4729, 4728
9936, 4630, 4631, 4730, 4729
9937, 4631, 4632, 4731, 4730
9938, 4632, 4633, 4732, 4731
9939, 4633, 4634, 4733, 4732
9940, 4634, 4635, 4734, 4733
9941, 4635, 4636, 4735, 4734
9942, 4636, 4637, 4736, 4735
9943, 4637, 4638, 4737, 4736
9944, 4638, 4639, 4738, 4737
9945, 4639, 4640, 4739, 4738
9946, 4640, 4641, 4740, 4739
9947, 4641, 4642, 4741, 4740
9948, 4642, 4643, 4742, 4741
9949, 4643, 4644, 4743, 4742
9950, 4644, 4645, 4744, 4743
9951, 4645, 4646, 4745, 4744
9952, 4646, 4647, 4746, 4745
9953, 4647, 4648, 4747, 4746
9954, 4648, 4649, 4748, 4747
9955, 4649, 4650, 4749, 4748
9956, 4650, 4651, 4750, 4749
9957, 4651, 4652, 4751, 4750
9958, 4652, 4653, 4752, 4751
9959, 4653, 4654, 4753, 4752
9960, 4654, 4655, 4754, 4753
9961, 4655, 4656, 4755, 4754
9962, 4656, 4657, 4756, 4755
9963, 4657, 4658, 4757, 4756
9964, 4658, 4659, 4758, 4757
9965, 4659, 4660, 4759, 4758
9966, 4660, 4661, 4760, 4759
9967, 4661, 4662, 4761, 4760
9968, 4662, 4663, 4762, 4761
9969, 4663, 4664, 4763, 4762
9970, 4664, 4665, 4764, 4763
9971, 4665, 4666, 4765, 4764
9972, 4666, 4667, 4766, 4765
9973, 4667, 4668, 4767, 4766
9974, 4668, 4669, 4768, 4767
9975, 4669, 4670, 4769, 4768
9976, 4670, 4671, 4770, 4769
9977, 4671, 4672, 4771, 4770
9978, 4672, 4673, 4772, 4771
9979, 4673, 4674, 4773, 4772
9980, 4674, 4675, 4774, 4773
9981, 4675, 4676, 4775, 4774
9982, 4676, 4677, 4776, 4775
9983, 4677, 4678, 4777, 4776
9984, 4678, 4679, 4778, 4777
9985, 4679, 4680, 4779, 4778
9986, 4680, 4681, 4780, 4779
9987, 4681, 4682, 4781, 4780
9988, 4682, 4683, 4782, 4781
9989, 4683, 4684, 4783, 4782
9990, 4684, 4685, 4784, 4783
9991, 4685, 4686, 4785, 4784
9992, 4686, 4687, 4786, 4785
9993, 4687, 4688, 4787, 4786
9994, 4688, 4689, 4788, 4787
9995, 4689, 4690, 4789, 4788
9996, 4690, 4691, 4790, 4789
9997, 4691, 4692, 4791, 4790
9998, 4692, 4693, 4792, 4791
9999, 4693, 4694, 4793, 4792
10000, 4694, 4695, 4794, 4793
10001, 4695, 4696, 4795, 4794
10002, 4696, 4697, 4796, 4795
10003, 4697, 4698, 4797, 4796
10004, 4698, 4699, 4798, 4797
10005, 4699, 4700, 4799, 4798
10006, 4700, 4701, 4800, 4799
10007, 4701, 4702, 4801, 4800
10008, 4702, 4703, 4802, 4801
10009, 4703, 4704, 4803, 4802
10010, 4704, 4705, 4804, 4803
10011, 4705, 4706, 4805, 4804
10012, 4706, 4707, 4806, 4805
10013, 4707, 4708, 4807, 4806
10014, 4708, 4709, 4808, 4807
10015, 4709, 4710, 4809, 4808
10016, 4710, 4711, 4810, 4809
10017, 4711, 4712, 4811, 4810
10018, 4712, 4713, 4812, 4811
10019, 4713, 4714, 4813, 4812
10020, 4714, 4715, 4814, 4813
10021, 4715, 4716, 4815, 4814
10022, 4716, 4717, 4816, 4815
10023, 4717, 4718, 4817, 4816
10024, 4718, 4719, 4818, 4817
10025, 4719, 4720, 4819, 4818
10026, 4720, 4721, 4820, 4819
10027, 4721, 4722, 4821, 4820
10028, 4722, 4723, 4822, 4821
10029, 4723, 4724, 4823, 4822
10030, 4724, 4725, 4824, 4823
10031, 4725,   23,  519, 4824
10032, 271, 4726, 4825, 272
10033, 4726, 4727, 4826, 4825
10034, 4727, 4728, 4827, 4826
10035, 4728, 4729, 4828, 4827
10036, 4729, 4730, 4829, 4828
10037, 4730, 4731, 4830, 4829
10038, 4731, 4732, 4831, 4830
10039, 4732, 4733, 4832, 4831
10040, 4733, 4734, 4833, 4832
10041, 4734, 4735, 4834, 4833
10042, 4735, 4736, 4835, 4834
10043, 4736, 4737, 4836, 4835
10044, 4737, 4738, 4837, 4836
10045, 4738, 4739, 4838, 4837
10046, 4739, 4740, 4839, 4838
10047, 4740, 4741, 4840, 4839
10048, 4741, 4742, 4841, 4840
10049, 4742, 4743, 4842, 4841
10050, 4743, 4744, 4843, 4842
10051, 4744, 4745, 4844, 4843
10052, 4745, 4746, 4845, 4844
10053, 4746, 4747, 4846, 4845
10054, 4747, 4748, 4847, 4846
10055, 4748, 4749, 4848, 4847
10056, 4749, 4750, 4849, 4848
10057, 4750, 4751, 4850, 4849
10058, 4751, 4752, 4851, 4850
10059, 4752, 4753, 4852, 4851
10060, 4753, 4754, 4853, 4852
10061, 4754, 4755, 4854, 4853
10062, 4755, 4756, 4855, 4854
10063, 4756, 4757, 4856, 4855
10064, 4757, 4758, 4857, 4856
10065, 4758, 4759, 4858, 4857
10066, 4759, 4760, 4859, 4858
10067, 4760, 4761, 4860, 4859
10068, 4761, 4762, 4861, 4860
10069, 4762, 4763, 4862, 4861
10070, 4763, 4764, 4863, 4862
10071, 4764, 4765, 4864, 4863
10072, 4765, 4766, 4865, 4864
10073, 4766, 4767, 4866, 4865
10074, 4767, 4768, 4867, 4866
10075, 4768, 4769, 4868, 4867
10076, 4769, 4770, 4869, 4868
10077, 4770, 4771, 4870, 4869
10078, 4771, 4772, 4871, 4870
10079, 4772, 4773, 4872, 4871
10080, 4773, 4774, 4873, 4872
10081, 4774, 4775, 4874, 4873
10082, 4775, 4776, 4875, 4874
10083, 4776, 4777, 4876, 4875
10084, 4777, 4778, 4877, 4876
10085, 4778, 4779, 4878, 4877
10086, 4779, 4780, 4879, 4878
10087, 4780, 4781, 4880, 4879
10088, 4781, 4782, 4881, 4880
10089, 4782, 4783, 4882, 4881
10090, 4783, 4784, 4883, 4882
10091, 4784, 4785, 4884, 4883
10092, 4785, 4786, 4885, 4884
10093, 4786, 4787, 4886, 4885
10094, 4787, 4788, 4887, 4886
10095, 4788, 4789, 4888, 4887
10096, 4789, 4790, 4889, 4888
10097, 4790, 4791, 4890, 4889
10098, 4791, 4792, 4891, 4890
10099, 4792, 4793, 4892, 4891
10100, 4793, 4794, 4893, 4892
10101, 4794, 4795, 4894, 4893
10102, 4795, 4796, 4895, 4894
10103, 4796, 4797, 4896, 4895
10104, 4797, 4798, 4897, 4896
10105, 4798, 4799, 4898, 4897
10106, 4799, 4800, 4899, 4898
10107, 4800, 4801, 4900, 4899
10108, 4801, 4802, 4901, 4900
10109, 4802, 4803, 4902, 4901
10110, 4803, 4804, 4903, 4902
10111, 4804, 4805, 4904, 4903
10112, 4805, 4806, 4905, 4904
10113, 4806, 4807, 4906, 4905
10114, 4807, 4808, 4907, 4906
10115, 4808, 4809, 4908, 4907
10116, 4809, 4810, 4909, 4908
10117, 4810, 4811, 4910, 4909
10118, 4811, 4812, 4911, 4910
10119, 4812, 4813, 4912, 4911
10120, 4813, 4814, 4913, 4912
10121, 4814, 4815, 4914, 4913
10122, 4815, 4816, 4915, 4914
10123, 4816, 4817, 4916, 4915
10124, 4817, 4818, 4917, 4916
10125, 4818, 4819, 4918, 4917
10126, 4819, 4820, 4919, 4918
10127, 4820, 4821, 4920, 4919
10128, 4821, 4822, 4921, 4920
10129, 4822, 4823, 4922, 4921
10130, 4823, 4824, 4923, 4922
10131, 4824,  519,  520, 4923
10132, 272, 4825, 4924, 273
10133, 4825, 4826, 4925, 4924
10134, 4826, 4827, 4926, 4925
10135, 4827, 4828, 4927, 4926
10136, 4828, 4829, 4928, 4927
10137, 4829, 4830, 4929, 4928
10138, 4830, 4831, 4930, 4929
10139, 4831, 4832, 4931, 4930
10140, 4832, 4833, 4932, 4931
10141, 4833, 4834, 4933, 4932
10142, 4834, 4835, 4934, 4933
10143, 4835, 4836, 4935, 4934
10144, 4836, 4837, 4936, 4935
10145, 4837, 4838, 4937, 4936
10146, 4838, 4839, 4938, 4937
10147, 4839, 4840, 4939, 4938
10148, 4840, 4841, 4940, 4939
10149, 4841, 4842, 4941, 4940
10150, 4842, 4843, 4942, 4941
10151, 4843, 4844, 4943, 4942
10152, 4844, 4845, 4944, 4943
10153, 4845, 4846, 4945, 4944
10154, 4846, 4847, 4946, 4945
10155, 4847, 4848, 4947, 4946
10156, 4848, 4849, 4948, 4947
10157, 4849, 4850, 4949, 4948
10158, 4850, 4851, 4950, 4949
10159, 4851, 4852, 4951, 4950
10160, 4852, 4853, 4952, 4951
10161, 4853, 4854, 4953, 4952
10162, 4854, 4855, 4954, 4953
10163, 4855, 4856, 4955, 4954
10164, 4856, 4857, 4956, 4955
10165, 4857, 4858, 4957, 4956
10166, 4858, 4859, 4958, 4957
10167, 4859, 4860, 4959, 4958
10168, 4860, 4861, 4960, 4959
10169, 4861, 4862, 4961, 4960
10170, 4862, 4863, 4962, 4961
10171, 4863, 4864, 4963, 4962
10172, 4864, 4865, 4964, 4963
10173, 4865, 4866, 4965, 4964
10174, 4866, 4867, 4966, 4965
10175, 4867, 4868, 4967, 4966
10176, 4868, 4869, 4968, 4967
10177, 4869, 4870, 4969, 4968
10178, 4870, 4871, 4970, 4969
10179, 4871, 4872, 4971, 4970
10180, 4872, 4873, 4972, 4971
10181, 4873, 4874, 4973, 4972
10182, 4874, 4875, 4974, 4973
10183, 4875, 4876, 4975, 4974
10184, 4876, 4877, 4976, 4975
10185, 4877, 4878, 4977, 4976
10186, 4878, 4879, 4978, 4977
10187, 4879, 4880, 4979, 4978
10188, 4880, 4881, 4980, 4979
10189, 4881, 4882, 4981, 4980
10190, 4882, 4883, 4982, 4981
10191, 4883, 4884, 4983, 4982
10192, 4884, 4885, 4984, 4983
10193, 4885, 4886, 4985, 4984
10194, 4886, 4887, 4986, 4985
10195, 4887, 4888, 4987, 4986
10196, 4888, 4889, 4988, 4987
10197, 4889, 4890, 4989, 4988
10198, 4890, 4891, 4990, 4989
10199, 4891, 4892, 4991, 4990
10200, 4892, 4893, 4992, 4991
10201, 4893, 4894, 4993, 4992
10202, 4894, 4895, 4994, 4993
10203, 4895, 4896, 4995, 4994
10204, 4896, 4897, 4996, 4995
10205, 4897, 4898, 4997, 4996
10206, 4898, 4899, 4998, 4997
10207, 4899, 4900, 4999, 4998
10208, 4900, 4901, 5000, 4999
10209, 4901, 4902, 5001, 5000
10210, 4902, 4903, 5002, 5001
10211, 4903, 4904, 5003, 5002
10212, 4904, 4905, 5004, 5003
10213, 4905, 4906, 5005, 5004
10214, 4906, 4907, 5006, 5005
10215, 4907, 4908, 5007, 5006
10216, 4908, 4909, 5008, 5007
10217, 4909, 4910, 5009, 5008
10218, 4910, 4911, 5010, 5009
10219, 4911, 4912, 5011, 5010
10220, 4912, 4913, 5012, 5011
10221, 4913, 4914, 5013, 5012
10222, 4914, 4915, 5014, 5013
10223, 4915, 4916, 5015, 5014
10224, 4916, 4917, 5016, 5015
10225, 4917, 4918, 5017, 5016
10226, 4918, 4919, 5018, 5017
10227, 4919, 4920, 5019, 5018
10228, 4920, 4921, 5020, 5019
10229, 4921, 4922, 5021, 5020
10230, 4922, 4923, 5022, 5021
10231, 4923,  520,  521, 5022
10232, 273, 4924, 5023, 274
10233, 4924, 4925, 5024, 5023
10234, 4925, 4926, 5025, 5024
10235, 4926, 4927, 5026, 5025
10236, 4927, 4928, 5027, 5026
10237, 4928, 4929, 5028, 5027
10238, 4929, 4930, 5029, 5028
10239, 4930, 4931, 5030, 5029
10240, 4931, 4932, 5031, 5030
10241, 4932, 4933, 5032, 5031
10242, 4933, 4934, 5033, 5032
10243, 4934, 4935, 5034, 5033
10244, 4935, 4936, 5035, 5034
10245, 4936, 4937, 5036, 5035
10246, 4937, 4938, 5037, 5036
10247, 4938, 4939, 5038, 5037
10248, 4939, 4940, 5039, 5038
10249, 4940, 4941, 5040, 5039
10250, 4941, 4942, 5041, 5040
10251, 4942, 4943, 5042, 5041
10252, 4943, 4944, 5043, 5042
10253, 4944, 4945, 5044, 5043
10254, 4945, 4946, 5045, 5044
10255, 4946, 4947, 5046, 5045
10256, 4947, 4948, 5047, 5046
10257, 4948, 4949, 5048, 5047
10258, 4949, 4950, 5049, 5048
10259, 4950, 4951, 5050, 5049
10260, 4951, 4952, 5051, 5050
10261, 4952, 4953, 5052, 5051
10262, 4953, 4954, 5053, 5052
10263, 4954, 4955, 5054, 5053
10264, 4955, 4956, 5055, 5054
10265, 4956, 4957, 5056, 5055
10266, 4957, 4958, 5057, 5056
10267, 4958, 4959, 5058, 5057
10268, 4959, 4960, 5059, 5058
10269, 4960, 4961, 5060, 5059
10270, 4961, 4962, 5061, 5060
10271, 4962, 4963, 5062, 5061
10272, 4963, 4964, 5063, 5062
10273, 4964, 4965, 5064, 5063
10274, 4965, 4966, 5065, 5064
10275, 4966, 4967, 5066, 5065
10276, 4967, 4968, 5067, 5066
10277, 4968, 4969, 5068, 5067
10278, 4969, 4970, 5069, 5068
10279, 4970, 4971, 5070, 5069
10280, 4971, 4972, 5071, 5070
10281, 4972, 4973, 5072, 5071
10282, 4973, 4974, 5073, 5072
10283, 4974, 4975, 5074, 5073
10284, 4975, 4976, 5075, 5074
10285, 4976, 4977, 5076, 5075
10286, 4977, 4978, 5077, 5076
10287, 4978, 4979, 5078, 5077
10288, 4979, 4980, 5079, 5078
10289, 4980, 4981, 5080, 5079
10290, 4981, 4982, 5081, 5080
10291, 4982, 4983, 5082, 5081
10292, 4983, 4984, 5083, 5082
10293, 4984, 4985, 5084, 5083
10294, 4985, 4986, 5085, 5084
10295, 4986, 4987, 5086, 5085
10296, 4987, 4988, 5087, 5086
10297, 4988, 4989, 5088, 5087
10298, 4989, 4990, 5089, 5088
10299, 4990, 4991, 5090, 5089
10300, 4991, 4992, 5091, 5090
10301, 4992, 4993, 5092, 5091
10302, 4993, 4994, 5093, 5092
10303, 4994, 4995, 5094, 5093
10304, 4995, 4996, 5095, 5094
10305, 4996, 4997, 5096, 5095
10306, 4997, 4998, 5097, 5096
10307, 4998, 4999, 5098, 5097
10308, 4999, 5000, 5099, 5098
10309, 5000, 5001, 5100, 5099
10310, 5001, 5002, 5101, 5100
10311, 5002, 5003, 5102, 5101
10312, 5003, 5004, 5103, 5102
10313, 5004, 5005, 5104, 5103
10314, 5005, 5006, 5105, 5104
10315, 5006, 5007, 5106, 5105
10316, 5007, 5008, 5107, 5106
10317, 5008, 5009, 5108, 5107
10318, 5009, 5010, 5109, 5108
10319, 5010, 5011, 5110, 5109
10320, 5011, 5012, 5111, 5110
10321, 5012, 5013, 5112, 5111
10322, 5013, 5014, 5113, 5112
10323, 5014, 5015, 5114, 5113
10324, 5015, 5016, 5115, 5114
10325, 5016, 5017, 5116, 5115
10326, 5017, 5018, 5117, 5116
10327, 5018, 5019, 5118, 5117
10328, 5019, 5020, 5119, 5118
10329, 5020, 5021, 5120, 5119
10330, 5021, 5022, 5121, 5120
10331, 5022,  521,  522, 5121
10332, 274, 5023, 5122, 275
10333, 5023, 5024, 5123, 5122
10334, 5024, 5025, 5124, 5123
10335, 5025, 5026, 5125, 5124
10336, 5026, 5027, 5126, 5125
10337, 5027, 5028, 5127, 5126
10338, 5028, 5029, 5128, 5127
10339, 5029, 5030, 5129, 5128
10340, 5030, 5031, 5130, 5129
10341, 5031, 5032, 5131, 5130
10342, 5032, 5033, 5132, 5131
10343, 5033, 5034, 5133, 5132
10344, 5034, 5035, 5134, 5133
10345, 5035, 5036, 5135, 5134
10346, 5036, 5037, 5136, 5135
10347, 5037, 5038, 5137, 5136
10348, 5038, 5039, 5138, 5137
10349, 5039, 5040, 5139, 5138
10350, 5040, 5041, 5140, 5139
10351, 5041, 5042, 5141, 5140
10352, 5042, 5043, 5142, 5141
10353, 5043, 5044, 5143, 5142
10354, 5044, 5045, 5144, 5143
10355, 5045, 5046, 5145, 5144
10356, 5046, 5047, 5146, 5145
10357, 5047, 5048, 5147, 5146
10358, 5048, 5049, 5148, 5147
10359, 5049, 5050, 5149, 5148
10360, 5050, 5051, 5150, 5149
10361, 5051, 5052, 5151, 5150
10362, 5052, 5053, 5152, 5151
10363, 5053, 5054, 5153, 5152
10364, 5054, 5055, 5154, 5153
10365, 5055, 5056, 5155, 5154
10366, 5056, 5057, 5156, 5155
10367, 5057, 5058, 5157, 5156
10368, 5058, 5059, 5158, 5157
10369, 5059, 5060, 5159, 5158
10370, 5060, 5061, 5160, 5159
10371, 5061, 5062, 5161, 5160
10372, 5062, 5063, 5162, 5161
10373, 5063, 5064, 5163, 5162
10374, 5064, 5065, 5164, 5163
10375, 5065, 5066, 5165, 5164
10376, 5066, 5067, 5166, 5165
10377, 5067, 5068, 5167, 5166
10378, 5068, 5069, 5168, 5167
10379, 5069, 5070, 5169, 5168
10380, 5070, 5071, 5170, 5169
10381, 5071, 5072, 5171, 5170
10382, 5072, 5073, 5172, 5171
10383, 5073, 5074, 5173, 5172
10384, 5074, 5075, 5174, 5173
10385, 5075, 5076, 5175, 5174
10386, 5076, 5077, 5176, 5175
10387, 5077, 5078, 5177, 5176
10388, 5078, 5079, 5178, 5177
10389, 5079, 5080, 5179, 5178
10390, 5080, 5081, 5180, 5179
10391, 5081, 5082, 5181, 5180
10392, 5082, 5083, 5182, 5181
10393, 5083, 5084, 5183, 5182
10394, 5084, 5085, 5184, 5183
10395, 5085, 5086, 5185, 5184
10396, 5086, 5087, 5186, 5185
10397, 5087, 5088, 5187, 5186
10398, 5088, 5089, 5188, 5187
10399, 5089, 5090, 5189, 5188
10400, 5090, 5091, 5190, 5189
10401, 5091, 5092, 5191, 5190
10402, 5092, 5093, 5192, 5191
10403, 5093, 5094, 5193, 5192
10404, 5094, 5095, 5194, 5193
10405, 5095, 5096, 5195, 5194
10406, 5096, 5097, 5196, 5195
10407, 5097, 5098, 5197, 5196
10408, 5098, 5099, 5198, 5197
10409, 5099, 5100, 5199, 5198
10410, 5100, 5101, 5200, 5199
10411, 5101, 5102, 5201, 5200
10412, 5102, 5103, 5202, 5201
10413, 5103, 5104, 5203, 5202
10414, 5104, 5105, 5204, 5203
10415, 5105, 5106, 5205, 5204
10416, 5106, 5107, 5206, 5205
10417, 5107, 5108, 5207, 5206
10418, 5108, 5109, 5208, 5207
10419, 5109, 5110, 5209, 5208
10420, 5110, 5111, 5210, 5209
10421, 5111, 5112, 5211, 5210
10422, 5112, 5113, 5212, 5211
10423, 5113, 5114, 5213, 5212
10424, 5114, 5115, 5214, 5213
10425, 5115, 5116, 5215, 5214
10426, 5116, 5117, 5216, 5215
10427, 5117, 5118, 5217, 5216
10428, 5118, 5119, 5218, 5217
10429, 5119, 5120, 5219, 5218
10430, 5120, 5121, 5220, 5219
10431, 5121,  522,  523, 5220
10432, 275, 5122, 5221, 276
10433, 5122, 5123, 5222, 5221
10434, 5123, 5124, 5223, 5222
10435, 5124, 5125, 5224, 5223
10436, 5125, 5126, 5225, 5224
10437, 5126, 5127, 5226, 5225
10438, 5127, 5128, 5227, 5226
10439, 5128, 5129, 5228, 5227
10440, 5129, 5130, 5229, 5228
10441, 5130, 5131, 5230, 5229
10442, 5131, 5132, 5231, 5230
10443, 5132, 5133, 5232, 5231
10444, 5133, 5134, 5233, 5232
10445, 5134, 5135, 5234, 5233
10446, 5135, 5136, 5235, 5234
10447, 5136, 5137, 5236, 5235
10448, 5137, 5138, 5237, 5236
10449, 5138, 5139, 5238, 5237
10450, 5139, 5140, 5239, 5238
10451, 5140, 5141, 5240, 5239
10452, 5141, 5142, 5241, 5240
10453, 5142, 5143, 5242, 5241
10454, 5143, 5144, 5243, 5242
10455, 5144, 5145, 5244, 5243
10456, 5145, 5146, 5245, 5244
10457, 5146, 5147, 5246, 5245
10458, 5147, 5148, 5247, 5246
10459, 5148, 5149, 5248, 5247
10460, 5149, 5150, 5249, 5248
10461, 5150, 5151, 5250, 5249
10462, 5151, 5152, 5251, 5250
10463, 5152, 5153, 5252, 5251
10464, 5153, 5154, 5253, 5252
10465, 5154, 5155, 5254, 5253
10466, 5155, 5156, 5255, 5254
10467, 5156, 5157, 5256, 5255
10468, 5157, 5158, 5257, 5256
10469, 5158, 5159, 5258, 5257
10470, 5159, 5160, 5259, 5258
10471, 5160, 5161, 5260, 5259
10472, 5161, 5162, 5261, 5260
10473, 5162, 5163, 5262, 5261
10474, 5163, 5164, 5263, 5262
10475, 5164, 5165, 5264, 5263
10476, 5165, 5166, 5265, 5264
10477, 5166, 5167, 5266, 5265
10478, 5167, 5168, 5267, 5266
10479, 5168, 5169, 5268, 5267
10480, 5169, 5170, 5269, 5268
10481, 5170, 5171, 5270, 5269
10482, 5171, 5172, 5271, 5270
10483, 5172, 5173, 5272, 5271
10484, 5173, 5174, 5273, 5272
10485, 5174, 5175, 5274, 5273
10486, 5175, 5176, 5275, 5274
10487, 5176, 5177, 5276, 5275
10488, 5177, 5178, 5277, 5276
10489, 5178, 5179, 5278, 5277
10490, 5179, 5180, 5279, 5278
10491, 5180, 5181, 5280, 5279
10492, 5181, 5182, 5281, 5280
10493, 5182, 5183, 5282, 5281
10494, 5183, 5184, 5283, 5282
10495, 5184, 5185, 5284, 5283
10496, 5185, 5186, 5285, 5284
10497, 5186, 5187, 5286, 5285
10498, 5187, 5188, 5287, 5286
10499, 5188, 5189, 5288, 5287
10500, 5189, 5190, 5289, 5288
10501, 5190, 5191, 5290, 5289
10502, 5191, 5192, 5291, 5290
10503, 5192, 5193, 5292, 5291
10504, 5193, 5194, 5293, 5292
10505, 5194, 5195, 5294, 5293
10506, 5195, 5196, 5295, 5294
10507, 5196, 5197, 5296, 5295
10508, 5197, 5198, 5297, 5296
10509, 5198, 5199, 5298, 5297
10510, 5199, 5200, 5299, 5298
10511, 5200, 5201, 5300, 5299
10512, 5201, 5202, 5301, 5300
10513, 5202, 5203, 5302, 5301
10514, 5203, 5204, 5303, 5302
10515, 5204, 5205, 5304, 5303
10516, 5205, 5206, 5305, 5304
10517, 5206, 5207, 5306, 5305
10518, 5207, 5208, 5307, 5306
10519, 5208, 5209, 5308, 5307
10520, 5209, 5210, 5309, 5308
10521, 5210, 5211, 5310, 5309
10522, 5211, 5212, 5311, 5310
10523, 5212, 5213, 5312, 5311
10524, 5213, 5214, 5313, 5312
10525, 5214, 5215, 5314, 5313
10526, 5215, 5216, 5315, 5314
10527, 5216, 5217, 5316, 5315
10528, 5217, 5218, 5317, 5316
10529, 5218, 5219, 5318, 5317
10530, 5219, 5220, 5319, 5318
10531, 5220,  523,  524, 5319
10532, 276, 5221,  282, 15
10533, 5221, 5222,  283, 282
10534, 5222, 5223,  284, 283
10535, 5223, 5224,  285, 284
10536, 5224, 5225,  286, 285
10537, 5225, 5226,  287, 286
10538, 5226, 5227,  288, 287
10539, 5227, 5228,  289, 288
10540, 5228, 5229,  290, 289
10541, 5229, 5230,  291, 290
10542, 5230, 5231,  292, 291
10543, 5231, 5232,  293, 292
10544, 5232, 5233,  294, 293
10545, 5233, 5234,  295, 294
10546, 5234, 5235,  296, 295
10547, 5235, 5236,  297, 296
10548, 5236, 5237,  298, 297
10549, 5237, 5238,  299, 298
10550, 5238, 5239,  300, 299
10551, 5239, 5240,  301, 300
10552, 5240, 5241,  302, 301
10553, 5241, 5242,  303, 302
10554, 5242, 5243,  304, 303
10555, 5243, 5244,  305, 304
10556, 5244, 5245,  306, 305
10557, 5245, 5246,  307, 306
10558, 5246, 5247,  308, 307
10559, 5247, 5248,  309, 308
10560, 5248, 5249,  310, 309
10561, 5249, 5250,  311, 310
10562, 5250, 5251,  312, 311
10563, 5251, 5252,  313, 312
10564, 5252, 5253,  314, 313
10565, 5253, 5254,  315, 314
10566, 5254, 5255,  316, 315
10567, 5255, 5256,  317, 316
10568, 5256, 5257,  318, 317
10569, 5257, 5258,  319, 318
10570, 5258, 5259,  320, 319
10571, 5259, 5260,  321, 320
10572, 5260, 5261,  322, 321
10573, 5261, 5262,  323, 322
10574, 5262, 5263,  324, 323
10575, 5263, 5264,  325, 324
10576, 5264, 5265,  326, 325
10577, 5265, 5266,  327, 326
10578, 5266, 5267,  328, 327
10579, 5267, 5268,  329, 328
10580, 5268, 5269,  330, 329
10581, 5269, 5270,  331, 330
10582, 5270, 5271,  332, 331
10583, 5271, 5272,  333, 332
10584, 5272, 5273,  334, 333
10585, 5273, 5274,  335, 334
10586, 5274, 5275,  336, 335
10587, 5275, 5276,  337, 336
10588, 5276, 5277,  338, 337
10589, 5277, 5278,  339, 338
10590, 5278, 5279,  340, 339
10591, 5279, 5280,  341, 340
10592, 5280, 5281,  342, 341
10593, 5281, 5282,  343, 342
10594, 5282, 5283,  344, 343
10595, 5283, 5284,  345, 344
10596, 5284, 5285,  346, 345
10597, 5285, 5286,  347, 346
10598, 5286, 5287,  348, 347
10599, 5287, 5288,  349, 348
10600, 5288, 5289,  350, 349
10601, 5289, 5290,  351, 350
10602, 5290, 5291,  352, 351
10603, 5291, 5292,  353, 352
10604, 5292, 5293,  354, 353
10605, 5293, 5294,  355, 354
10606, 5294, 5295,  356, 355
10607, 5295, 5296,  357, 356
10608, 5296, 5297,  358, 357
10609, 5297, 5298,  359, 358
10610, 5298, 5299,  360, 359
10611, 5299, 5300,  361, 360
10612, 5300, 5301,  362, 361
10613, 5301, 5302,  363, 362
10614, 5302, 5303,  364, 363
10615, 5303, 5304,  365, 364
10616, 5304, 5305,  366, 365
10617, 5305, 5306,  367, 366
10618, 5306, 5307,  368, 367
10619, 5307, 5308,  369, 368
10620, 5308, 5309,  370, 369
10621, 5309, 5310,  371, 370
10622, 5310, 5311,  372, 371
10623, 5311, 5312,  373, 372
10624, 5312, 5313,  374, 373
10625, 5313, 5314,  375, 374
10626, 5314, 5315,  376, 375
10627, 5315, 5316,  377, 376
10628, 5316, 5317,  378, 377
10629, 5317, 5318,  379, 378
10630, 5318, 5319,  380, 379
10631, 5319,  524,   16, 380
10633, 5336, 5335,   18, 385
10634, 5337, 5343, 5346, 5340
10635, 5335, 5336, 5322, 5340
10636, 5321, 5322,  537, 538
10637, 17,  536, 5336, 385
10638, 5323, 5321,  538, 539
10639, 534,  535, 5334, 5350
10640, 5325, 5324,  540, 541
10641, 5320, 5325,  541, 542
10642, 5328, 5329,   61, 60
10643, 5342, 5345, 5339, 5348
10644, 544, 5326,  543, 24
10645, 5326, 5320,  542, 543
10646, 5331,   63,   62, 5330
10647, 546,   8,  63, 5331
10648, 7,  534, 5350, 56
10649, 5334, 5335, 5340, 5346
10650, 5344, 5343, 5341, 5338
10651, 5324, 5323,  539, 540
10652, 61, 5329, 5330, 62
10653, 537, 5322, 5336, 536
10654, 5324, 5338, 5341, 5323
10655, 5338, 5339, 5345, 5344
10656, 59, 5327, 5328, 60
10657, 5348, 5349, 5347, 5342
10658, 544,  545, 5349, 5326
10659, 5347, 5330, 5329, 5342
10660, 5327,   59,   58, 5333
10661, 5333,   58,   57, 5332
10662, 5325, 5339, 5338, 5324
10663, 5331, 5330, 5347, 5349
10664, 545,  546, 5331, 5349
10665, 5332,   57,   56, 5350
10666, 5332, 5350, 5334, 5346
10667, 5335, 5334,  535, 18
10668, 5321, 5337, 5340, 5322
10669, 5337, 5321, 5323, 5341
10670, 5339, 5325, 5320, 5348
10671, 5345, 5342, 5329, 5328
10672, 5343, 5344, 5327, 5333
10673, 5346, 5343, 5333, 5332
10674, 5328, 5327, 5344, 5345
10675, 5348, 5320, 5326, 5349
10696, 19, 5400, 5398, 399
10697, 401, 5397, 5605, 402
10698, 5443, 5597, 5617, 5449
10699, 387, 5448, 5400, 19
10700, 534,   7,  55, 5594
10701, 46,   6, 547, 5583
10702, 5600,  484,  483, 5356
10703, 493, 5443, 5596, 494
10704, 5399,  496,  495, 5444
10705, 5357,  480,  479, 5358
10706, 5404,  446,  445, 5375
10707, 5447, 5626, 5606, 5398
10708, 5353,  486,  485, 5403
10709, 5444,  495,  494, 5596
10710, 496, 5399, 5595, 497
10711, 21,  497, 5595, 550
10712, 5450, 5491, 5449, 5617
10713, 5406,  491,  490, 5598
10714, 5598,  490,  489, 5354
10715, 488, 5355, 5354, 489
10716, 5599,  487,  486, 5353
10717, 484, 5600, 5403, 485
10718, 5446, 5485, 5355, 5599
10719, 5356,  483,  482, 5413
10720, 5358,  479,  478, 5359
10721, 5359,  478,  477, 5407
10722, 476,  475, 5415, 5360
10723, 480, 5357, 5414, 481
10724, 5360, 5407,  477, 476
10725, 475,  474, 5361, 5415
10726, 5623, 5601, 5362, 5466
10727, 5362,  472,  471, 5408
10728, 5363,  470,  469, 5417
10729, 5364,  468,  467, 5418
10730, 5365,  466,  465, 5419
10731, 5366,  464,  463, 5420
10732, 5352,  462,  461, 5421
10733, 5408,  471,  470, 5363
10734, 5367,  459,  458, 5368
10735, 5368,  458,  457, 5369
10736, 5369,  457,  456, 5409
10737, 459, 5367, 5422, 460
10738, 5409,  456,  455, 5370
10739, 5370,  455,  454, 5423
10740, 5424, 5371,  453, 452
10741, 5425, 5372,  451, 450
10742, 450,  449, 5373, 5425
10743, 5602,  448,  447, 5374
10744, 5374,  447,  446, 5404
10745, 5375,  445,  444, 5427
10746, 5376,  443,  442, 5428
10747, 5429, 5377,  441, 440
10748, 440,  439, 5378, 5429
10749, 5379,  437,  436, 5410
10750, 5380, 5410,  436, 435
10751, 5430, 5380,  435, 434
10752, 5381,  433,  432, 5431
10753, 5382,  431,  430, 5432
10754, 5383,  429,  428, 5433
10755, 5434, 5384,  427, 426
10756, 426,  425, 5385, 5434
10757, 5386,  423,  422, 5411
10758, 5411,  422,  421, 5387
10759, 418,  417, 5389, 5388
10760, 5387,  421,  420, 5436
10761, 5388, 5437,  419, 418
10762, 416, 5390, 5389, 417
10763, 5412,  415,  414, 5391
10764, 5391,  414,  413, 5438
10765, 405, 5395, 5442, 406
10766, 403, 5351, 5396, 404
10767, 5397,  401,  400, 5606
10768, 5626, 5447, 5625, 5405
10769, 399, 5398, 5606, 400
10770, 5402, 5448,  387, 386
10771, 5402,  535, 5535, 5608
10772, 5452, 5412, 5454, 5519
10773, 5351,  403,  402, 5605
10774, 5420, 5462, 5419, 5366
10775, 462, 5352, 5420, 463
10776, 5431, 5476, 5430, 5381
10777, 5355,  488,  487, 5599
10778, 5353, 5403, 5619, 5488
10779, 5619, 5492, 5635, 5488
10780, 5413,  482,  481, 5414
10781, 5620, 5358, 5359, 5657
10782, 5361,  474,  473, 5601
10783, 5486, 5414, 5357, 5451
10784, 472, 5362, 5601, 473
10785, 5620, 5451, 5357, 5358
10786, 5361, 5601, 5623, 5416
10787, 468, 5364, 5417, 469
10788, 5623, 5466, 5639, 5416
10789, 466, 5365, 5418, 467
10790, 5408, 5363, 5417, 5467
10791, 5419,  465,  464, 5366
10792, 5417, 5364, 5418, 5468
10793, 5418, 5365, 5419, 5455
10794, 5420, 5352, 5421, 5469
10795, 460, 5422, 5421, 461
10796, 5458, 5622, 5369, 5409
10797, 5371, 5423,  454, 453
10798, 5373,  449,  448, 5602
10799, 5409, 5370, 5423, 5458
10800, 5423, 5371, 5424, 5461
10801, 5425, 5471, 5424, 5372
10802, 443, 5376, 5427, 444
10803, 5630, 5426, 5602, 5374
10804, 5378,  439,  438, 5603
10805, 437, 5379, 5603, 438
10806, 5377, 5428,  442, 441
10807, 5428, 5463, 5427, 5376
10808, 5473, 5502, 5463, 5428
10809, 5429, 5473, 5428, 5377
10810, 433, 5381, 5430, 434
10811, 431, 5382, 5431, 432
10812, 429, 5383, 5432, 430
10813, 5410, 5380, 5430, 5456
10814, 5431, 5382, 5432, 5464
10815, 5432, 5383, 5433, 5477
10816, 5434, 5478, 5433, 5384
10817, 5385,  425,  424, 5604
10818, 5633, 5385, 5604, 5435
10819, 423, 5386, 5604, 424
10820, 5526, 5494, 5479, 5514
10821, 5390,  416,  415, 5412
10822, 5436,  420,  419, 5437
10823, 412, 5392, 5438, 413
10824, 5437, 5452, 5460, 5436
10825, 5452, 5437, 5390, 5412
10826, 410, 5393, 5439, 411
10827, 5392,  412,  411, 5439
10828, 408,  407, 5441, 5394
10829, 5393,  410,  409, 5440
10830, 5412, 5391, 5438, 5454
10831, 5394, 5440,  409, 408
10832, 5438, 5392, 5439, 5481
10833, 5439, 5393, 5440, 5482
10834, 5440, 5394, 5441, 5483
10835, 5395,  405,  404, 5396
10836, 406, 5442, 5441, 407
10837, 5351, 5453, 5627, 5396
10838, 5447, 5398, 5400, 5487
10839, 5613, 5517, 5518, 5482
10840, 5555, 5537, 5549, 5610
10841, 5595, 5399,  549, 550
10842, 492, 5597, 5443, 493
10843, 5402,  386,   18, 535
10844, 5522, 5562, 5549, 5536
10845, 5449, 5491, 5490, 5615
10846, 5482, 5518, 5481, 5439
10847, 5605, 5397, 5405, 5453
10848, 491, 5406, 5597, 492
10849, 5618, 5450, 5406, 5598
10850, 5414, 5486, 5612, 5413
10851, 5521, 5651, 5532, 5492
10852, 5465, 5436, 5460, 5504
10853, 5612, 5600, 5356, 5413
10854, 5415, 5614, 5407, 5360
10855, 5415, 5361, 5416, 5614
10856, 5467, 5638, 5624, 5408
10857, 5468, 5418, 5455, 5640
10858, 5469, 5503, 5462, 5420
10859, 5470, 5421, 5422, 5621
10860, 5621, 5422, 5367, 5622
10861, 5372, 5424,  452, 451
10862, 5471, 5498, 5461, 5424
10863, 5472, 5653, 5426, 5630
10864, 5471, 5629, 5653, 5508
10865, 5602, 5426, 5629, 5373
10866, 5472, 5404, 5459, 5509
10867, 5404, 5375, 5427, 5459
10868, 5459, 5427, 5463, 5493
10869, 5631, 5473, 5429, 5378
10870, 5603, 5379, 5631, 5378
10871, 5475, 5410, 5456, 5632
10872, 5464, 5500, 5476, 5431
10873, 5384, 5433,  428, 427
10874, 5499, 5476, 5500, 5644
10875, 5477, 5433, 5478, 5494
10876, 5480, 5411, 5465, 5515
10877, 5436, 5465, 5411, 5387
10878, 5454, 5438, 5481, 5516
10879, 5395, 5484, 5628, 5442
10880, 5401,  549, 5399, 5444
10881, 5445, 5354, 5355, 5485
10882, 5353, 5488, 5446, 5599
10883, 5487, 5400, 5448, 5609
10884, 5610, 5565, 5563, 5555
10885, 5444, 5596, 5615, 5490
10886, 5491, 5445, 5485, 5538
10887, 5445, 5491, 5450, 5618
10888, 5503, 5506, 5545, 5524
10889, 5519, 5454, 5516, 5648
10890, 5484, 5627, 5453, 5641
10891, 5510, 5502, 5473, 5474
10892, 5561,  548, 5401, 5616
10893, 5650, 5506, 5503, 5469
10894, 5508, 5529, 5498, 5471
10895, 5526, 5514, 5543, 5558
10896, 5458, 5423, 5461, 5497
10897, 5455, 5419, 5462, 5496
10898, 5510, 5544, 5642, 5502
10899, 5542, 5647, 5644, 5500
10900, 5633, 5478, 5434, 5385
10901, 5467, 5417, 5468, 5505
10902, 5496, 5546, 5640, 5455
10903, 5469, 5421, 5470, 5650
10904, 5520, 5458, 5497, 5534
10905, 5650, 5520, 5534, 5506
10906, 5629, 5471, 5425, 5373
10907, 5509, 5507, 5653, 5472
10908, 5497, 5461, 5498, 5525
10909, 5509, 5459, 5493, 5527
10910, 5473, 5631, 5475, 5474
10911, 5510, 5632, 5512, 5511
10912, 5474, 5475, 5632, 5510
10913, 5499, 5512, 5632, 5456
10914, 5456, 5430, 5476, 5499
10915, 5513, 5477, 5494, 5526
10916, 5464, 5432, 5477, 5513
10917, 5478, 5633, 5479, 5494
10918, 5435, 5514, 5479, 5633
10919, 5514, 5435, 5480, 5515
10920, 5515, 5465, 5504, 5646
10921, 5386, 5480, 5435, 5604
10922, 5515, 5646, 5543, 5514
10923, 5517, 5537, 5649, 5518
10924, 5440, 5483, 5613, 5482
10925, 5484, 5652, 5483, 5628
10926, 5652, 5517, 5613, 5483
10927, 5489, 5641, 5625, 5611
10928, 5492, 5612, 5486, 5521
10929, 5656, 5658, 5495, 5639
10930, 5614, 5495, 5457, 5407
10931, 5619, 5600, 5612, 5492
10932, 5522, 5611, 5609, 5608
10933, 5489, 5536, 5517, 5652
10934, 5492, 5532, 5540, 5635
10935, 5446, 5488, 5538, 5485
10936, 5641, 5453, 5405, 5625
10937, 5513, 5542, 5500, 5464
10938, 5501, 5656, 5639, 5466
10939, 5548, 5636, 5550, 5531
10940, 5556, 5568, 5524, 5545
10941, 5511, 5547, 5655, 5544
10942, 5495, 5614, 5416, 5639
10943, 5501, 5466, 5624, 5659
10944, 5493, 5463, 5502, 5642
10945, 5621, 5520, 5650, 5470
10946, 5460, 5452, 5519, 5645
10947, 5533, 5552, 5530, 5645
10948, 5531, 5501, 5659, 5548
10949, 5640, 5546, 5505, 5468
10950, 5524, 5546, 5496, 5503
10951, 5534, 5497, 5525, 5553
10952, 5653, 5507, 5529, 5508
10953, 5529, 5507, 5541, 5637
10954, 5509, 5527, 5541, 5507
10955, 5512, 5528, 5547, 5511
10956, 5512, 5499, 5644, 5528
10957, 5542, 5513, 5526, 5558
10958, 5646, 5504, 5530, 5559
10959, 5645, 5530, 5504, 5460
10960, 5536, 5489, 5611, 5522
10961, 5536, 5549, 5537, 5517
10962, 5516, 5481, 5518, 5649
10963, 5616, 5538, 5554, 5561
10964, 5645, 5519, 5648, 5533
10965, 5657, 5521, 5451, 5620
10966, 5607, 5591,   54, 53
10967, 5490, 5491, 5538, 5616
10968, 5551, 5533, 5523, 5539
10969, 5568, 5654, 5546, 5524
10970, 5542, 5558, 5566, 5647
10971, 5525, 5498, 5529, 5553
10972, 5558, 5543, 5559, 5581
10973, 5532, 5531, 5550, 5540
10974, 5505, 5546, 5654, 5638
10975, 5548, 5659, 5654, 5568
10976, 5550, 5577, 5571, 5540
10977, 5545, 5506, 5534, 5569
10978, 5522, 5608, 5535, 5562
10979, 534, 5594, 5535, 535
10980, 5563, 5560, 5551, 5539
10981, 5649, 5537, 5539, 5523
10982, 5561, 5583,  547, 548
10983, 5570, 5552, 5560, 5572
10984, 5527, 5643, 5557, 5541
10985, 5580, 5564, 5637, 5574
10986, 5547, 5573, 5567, 5655
10987, 5643, 5642, 5544, 5655
10988, 5578, 5569, 5564, 5580
10989, 5547, 5528, 5566, 5573
10990, 5588, 5590, 5580, 5574
10991, 5552, 5533, 5551, 5560
10992, 5581, 5570, 5584, 5575
10993, 5553, 5564, 5569, 5534
10994, 5591, 5607, 5565, 5610
10995, 5539, 5537, 5555, 5563
10996, 5548, 5568, 5576, 5636
10997, 5558, 5581, 5575, 5566
10998, 5592, 5583, 5571, 5577
10999, 5591, 5594,   55, 54
11000, 5593, 5607,   53, 52
11001, 5553, 5529, 5637, 5564
11002, 5576, 5556, 5578, 5634
11003, 5635, 5540, 5571, 5554
11004, 5563, 5565, 5572, 5560
11005, 5573, 5566, 5575, 5585
11006, 5647, 5566, 5528, 5644
11007, 5582, 5574, 5557, 5567
11008, 5643, 5655, 5567, 5557
11009, 5578, 5556, 5545, 5569
11010, 5593, 5584, 5570, 5572
11011, 5559, 5552, 5570, 5581
11012, 5561, 5554, 5571, 5583
11013, 5588, 5574, 5582, 5586
11014, 5582, 5567, 5573, 5585
11015, 5587, 5584, 5593, 52
11016, 5636, 5579, 5577, 5550
11017, 5579, 5636, 5576, 5634
11018, 46, 5583, 5592, 47
11019, 5589, 5590,   49, 48
11020, 5589,   48,   47, 5592
11021, 5588,   50,   49, 5590
11022, 5575, 5584, 5587, 5585
11023, 5586, 5582, 5585, 5587
11024, 51, 5586, 5587, 52
11025, 5586,   51,   50, 5588
11026, 5634, 5590, 5589, 5579
11027, 5579, 5589, 5592, 5577
11028, 5578, 5580, 5590, 5634
11029, 5594, 5591, 5562, 5535
11030, 5615, 5596, 5443, 5449
11031, 5617, 5597, 5406, 5450
11032, 5618, 5598, 5354, 5445
11033, 5607, 5593, 5572, 5565
11034, 5402, 5608, 5609, 5448
11035, 5610, 5549, 5562, 5591
11036, 5609, 5611, 5625, 5487
11037, 5657, 5359, 5407, 5457
11038, 5520, 5621, 5622, 5458
11039, 5362, 5408, 5624, 5466
11040, 5626, 5405, 5397, 5606
11041, 5627, 5484, 5395, 5396
11042, 5628, 5483, 5441, 5442
11043, 5437, 5388, 5389, 5390
11044, 5630, 5374, 5404, 5472
11045, 5379, 5410, 5475, 5631
11046, 5488, 5635, 5554, 5538
11047, 5637, 5541, 5557, 5574
11048, 5624, 5638, 5654, 5659
11049, 5484, 5641, 5489, 5652
11050, 5527, 5493, 5642, 5643
11051, 5648, 5516, 5649, 5523
11052, 5658, 5656, 5651, 5521
11053, 5531, 5532, 5651, 5501
11054, 5657, 5457, 5658, 5521
***************************************************************
*Element, type=CPE3
10632, 5343, 5337, 5341
10676, 5622, 5367, 5368
10677, 5480, 5386, 5411
10678, 5605, 5453, 5351
10679, 5487, 5625, 5447
10680, 5648, 5523, 5533
10681, 5600, 5619, 5403
10682, 548, 549, 5401
10683, 5490, 5401, 5444
10684, 5521, 5486, 5451
10685, 5503, 5496, 5462
10686, 5544, 5510, 5511
10687, 5501, 5651, 5656
10688, 5646, 5559, 5543
10689, 5559, 5530, 5552
10690, 5576, 5568, 5556
10691, 5616, 5401, 5490
10692, 5622, 5368, 5369
10693, 5505, 5638, 5467
10694, 5653, 5629, 5426
10695, 5495, 5658, 5457
***************************************************************
*Elset, elset=umatelem, generate
5528, 11054, 1
***************************************************************
*Solid Section, elset=umatelem, material=Material-1
1.0
*End Part
**  
**
** ASSEMBLY
**
*Assembly, name=Assembly
**  
*Instance, name=TPB-1, part=TPB
*End Instance
**  
*Node
      1, -0.335315704,          55.,           0.
*Nset, nset=RP
 1,
*Nset, nset=left, instance=TPB-1
 13,
*Nset, nset=orig, instance=TPB-1
    1,    2,    3,    4,    5,    6,    7,    8,    9,   10,   11,   12,   13,   17,   18,   24
   25,   26,   27,   28,   29,   30,   31,   32,   33,   34,   35,   36,   37,   38,   39,   40
   41,   42,   43,   44,   45,   46,   47,   48,   49,   50,   51,   52,   53,   54,   55,   56
   57,   58,   59,   60,   61,   62,   63,   64,   65,   66,   67,   68,   69,   70,   71,   72
   73,   74,   75,   76,   77,   78,   79,   80,   81,   82,   83,   84,   85,   86,   87,   88
   89,   90,   91,   92,   93,   94,   95,   96,   97,   98,   99,  100,  101,  102,  103,  104
  105,  106,  107,  108,  109,  110,  111,  112,  113,  114,  115,  116,  117,  118,  119,  120
  121,  122,  123,  124,  125,  126,  127,  128,  129,  130,  131,  132,  133,  134,  135,  136
  137,  138,  139,  140,  141,  142,  143,  144,  145,  146,  147,  148,  149,  150,  151,  152
  153,  154,  155,  156,  157,  158,  159,  160,  161,  162,  163,  164,  165,  166,  167,  168
  169,  170,  171,  172,  173,  174,  175,  176,  177,  178,  179,  180,  181,  182,  183,  184
  185,  186,  187,  188,  189,  190,  191,  192,  193,  194,  195,  196,  197,  198,  199,  200
  201,  202,  203,  204,  205,  206,  207,  208,  209,  210,  211,  212,  213,  214,  215,  216
  217,  218,  219,  220,  221,  222,  223,  224,  225,  226,  227,  228,  229,  230,  231,  232
  233,  234,  235,  236,  237,  238,  239,  240,  241,  242,  243,  244,  245,  246,  247,  248
  249,  250,  251,  252,  253,  254,  255,  256,  257,  258,  259,  260,  261,  262,  263,  264
  265,  266,  267,  385,  534,  535,  536,  537,  538,  539,  540,  541,  542,  543,  544,  545
  546,  551,  552,  553,  554,  555,  556,  557,  558,  559,  560,  561,  562,  563,  564,  565
  566,  567,  568,  569,  570,  571,  572,  573,  574,  575,  576,  577,  578,  579,  580,  581
  582,  583,  584,  585,  586,  587,  588,  589,  590,  591,  592,  593,  594,  595,  596,  597
  598,  599,  600,  601,  602,  603,  604,  605,  606,  607,  608,  609,  610,  611,  612,  613
  614,  615,  616,  617,  618,  619,  620,  621,  622,  623,  624,  625,  626,  627,  628,  629
  630,  631,  632,  633,  634,  635,  636,  637,  638,  639,  640,  641,  642,  643,  644,  645
  646,  647,  648,  649,  650,  651,  652,  653,  654,  655,  656,  657,  658,  659,  660,  661
  662,  663,  664,  665,  666,  667,  668,  669,  670,  671,  672,  673,  674,  675,  676,  677
  678,  679,  680,  681,  682,  683,  684,  685,  686,  687,  688,  689,  690,  691,  692,  693
  694,  695,  696,  697,  698,  699,  700,  701,  702,  703,  704,  705,  706,  707,  708,  709
  710,  711,  712,  713,  714,  715,  716,  717,  718,  719,  720,  721,  722,  723,  724,  725
  726,  727,  728,  729,  730,  731,  732,  733,  734,  735,  736,  737,  738,  739,  740,  741
  742,  743,  744,  745,  746,  747,  748,  749,  750,  751,  752,  753,  754,  755,  756,  757
  758,  759,  760,  761,  762,  763,  764,  765,  766,  767,  768,  769,  770,  771,  772,  773
  774,  775,  776,  777,  778,  779,  780,  781,  782,  783,  784,  785,  786,  787,  788,  789
  790,  791,  792,  793,  794,  795,  796,  797,  798,  799,  800,  801,  802,  803,  804,  805
  806,  807,  808,  809,  810,  811,  812,  813,  814,  815,  816,  817,  818,  819,  820,  821
  822,  823,  824,  825,  826,  827,  828,  829,  830,  831,  832,  833,  834,  835,  836,  837
  838,  839,  840,  841,  842,  843,  844,  845,  846,  847,  848,  849,  850,  851,  852,  853
  854,  855,  856,  857,  858,  859,  860,  861,  862,  863,  864,  865,  866,  867,  868,  869
  870,  871,  872,  873,  874,  875,  876,  877,  878,  879,  880,  881,  882,  883,  884,  885
  886,  887,  888,  889,  890,  891,  892,  893,  894,  895,  896,  897,  898,  899,  900,  901
  902,  903,  904,  905,  906,  907,  908,  909,  910,  911,  912,  913,  914,  915,  916,  917
  918,  919,  920,  921,  922,  923,  924,  925,  926,  927,  928,  929,  930,  931,  932,  933
  934,  935,  936,  937,  938,  939,  940,  941,  942,  943,  944,  945,  946,  947,  948,  949
  950,  951,  952,  953,  954,  955,  956,  957,  958,  959,  960,  961,  962,  963,  964,  965
  966,  967,  968,  969,  970,  971,  972,  973,  974,  975,  976,  977,  978,  979,  980,  981
  982,  983,  984,  985,  986,  987,  988,  989,  990,  991,  992,  993,  994,  995,  996,  997
  998,  999, 1000, 1001, 1002, 1003, 1004, 1005, 1006, 1007, 1008, 1009, 1010, 1011, 1012, 1013
 1014, 1015, 1016, 1017, 1018, 1019, 1020, 1021, 1022, 1023, 1024, 1025, 1026, 1027, 1028, 1029
 1030, 1031, 1032, 1033, 1034, 1035, 1036, 1037, 1038, 1039, 1040, 1041, 1042, 1043, 1044, 1045
 1046, 1047, 1048, 1049, 1050, 1051, 1052, 1053, 1054, 1055, 1056, 1057, 1058, 1059, 1060, 1061
 1062, 1063, 1064, 1065, 1066, 1067, 1068, 1069, 1070, 1071, 1072, 1073, 1074, 1075, 1076, 1077
 1078, 1079, 1080, 1081, 1082, 1083, 1084, 1085, 1086, 1087, 1088, 1089, 1090, 1091, 1092, 1093
 1094, 1095, 1096, 1097, 1098, 1099, 1100, 1101, 1102, 1103, 1104, 1105, 1106, 1107, 1108, 1109
 1110, 1111, 1112, 1113, 1114, 1115, 1116, 1117, 1118, 1119, 1120, 1121, 1122, 1123, 1124, 1125
 1126, 1127, 1128, 1129, 1130, 1131, 1132, 1133, 1134, 1135, 1136, 1137, 1138, 1139, 1140, 1141
 1142, 1143, 1144, 1145, 1146, 1147, 1148, 1149, 1150, 1151, 1152, 1153, 1154, 1155, 1156, 1157
 1158, 1159, 1160, 1161, 1162, 1163, 1164, 1165, 1166, 1167, 1168, 1169, 1170, 1171, 1172, 1173
 1174, 1175, 1176, 1177, 1178, 1179, 1180, 1181, 1182, 1183, 1184, 1185, 1186, 1187, 1188, 1189
 1190, 1191, 1192, 1193, 1194, 1195, 1196, 1197, 1198, 1199, 1200, 1201, 1202, 1203, 1204, 1205
 1206, 1207, 1208, 1209, 1210, 1211, 1212, 1213, 1214, 1215, 1216, 1217, 1218, 1219, 1220, 1221
 1222, 1223, 1224, 1225, 1226, 1227, 1228, 1229, 1230, 1231, 1232, 1233, 1234, 1235, 1236, 1237
 1238, 1239, 1240, 1241, 1242, 1243, 1244, 1245, 1246, 1247, 1248, 1249, 1250, 1251, 1252, 1253
 1254, 1255, 1256, 1257, 1258, 1259, 1260, 1261, 1262, 1263, 1264, 1265, 1266, 1267, 1268, 1269
 1270, 1271, 1272, 1273, 1274, 1275, 1276, 1277, 1278, 1279, 1280, 1281, 1282, 1283, 1284, 1285
 1286, 1287, 1288, 1289, 1290, 1291, 1292, 1293, 1294, 1295, 1296, 1297, 1298, 1299, 1300, 1301
 1302, 1303, 1304, 1305, 1306, 1307, 1308, 1309, 1310, 1311, 1312, 1313, 1314, 1315, 1316, 1317
 1318, 1319, 1320, 1321, 1322, 1323, 1324, 1325, 1326, 1327, 1328, 1329, 1330, 1331, 1332, 1333
 1334, 1335, 1336, 1337, 1338, 1339, 1340, 1341, 1342, 1343, 1344, 1345, 1346, 1347, 1348, 1349
 1350, 1351, 1352, 1353, 1354, 1355, 1356, 1357, 1358, 1359, 1360, 1361, 1362, 1363, 1364, 1365
 1366, 1367, 1368, 1369, 1370, 1371, 1372, 1373, 1374, 1375, 1376, 1377, 1378, 1379, 1380, 1381
 1382, 1383, 1384, 1385, 1386, 1387, 1388, 1389, 1390, 1391, 1392, 1393, 1394, 1395, 1396, 1397
 1398, 1399, 1400, 1401, 1402, 1403, 1404, 1405, 1406, 1407, 1408, 1409, 1410, 1411, 1412, 1413
 1414, 1415, 1416, 1417, 1418, 1419, 1420, 1421, 1422, 1423, 1424, 1425, 1426, 1427, 1428, 1429
 1430, 1431, 1432, 1433, 1434, 1435, 1436, 1437, 1438, 1439, 1440, 1441, 1442, 1443, 1444, 1445
 1446, 1447, 1448, 1449, 1450, 1451, 1452, 1453, 1454, 1455, 1456, 1457, 1458, 1459, 1460, 1461
 1462, 1463, 1464, 1465, 1466, 1467, 1468, 1469, 1470, 1471, 1472, 1473, 1474, 1475, 1476, 1477
 1478, 1479, 1480, 1481, 1482, 1483, 1484, 1485, 1486, 1487, 1488, 1489, 1490, 1491, 1492, 1493
 1494, 1495, 1496, 1497, 1498, 1499, 1500, 1501, 1502, 1503, 1504, 1505, 1506, 1507, 1508, 1509
 1510, 1511, 1512, 1513, 1514, 1515, 1516, 1517, 1518, 1519, 1520, 1521, 1522, 1523, 1524, 1525
 1526, 1527, 1528, 1529, 1530, 1531, 1532, 1533, 1534, 1535, 1536, 1537, 1538, 1539, 1540, 1541
 1542, 1543, 1544, 1545, 1546, 1547, 1548, 1549, 1550, 1551, 1552, 1553, 1554, 1555, 1556, 1557
 1558, 1559, 1560, 1561, 1562, 1563, 1564, 1565, 1566, 1567, 1568, 1569, 1570, 1571, 1572, 1573
 1574, 1575, 1576, 1577, 1578, 1579, 1580, 1581, 1582, 1583, 1584, 1585, 1586, 1587, 1588, 1589
 1590, 1591, 1592, 1593, 1594, 1595, 1596, 1597, 1598, 1599, 1600, 1601, 1602, 1603, 1604, 1605
 1606, 1607, 1608, 1609, 1610, 1611, 1612, 1613, 1614, 1615, 1616, 1617, 1618, 1619, 1620, 1621
 1622, 1623, 1624, 1625, 1626, 1627, 1628, 1629, 1630, 1631, 1632, 1633, 1634, 1635, 1636, 1637
 1638, 1639, 1640, 1641, 1642, 1643, 1644, 1645, 1646, 1647, 1648, 1649, 1650, 1651, 1652, 1653
 1654, 1655, 1656, 1657, 1658, 1659, 1660, 1661, 1662, 1663, 1664, 1665, 1666, 1667, 1668, 1669
 1670, 1671, 1672, 1673, 1674, 1675, 1676, 1677, 1678, 1679, 1680, 1681, 1682, 1683, 1684, 1685
 1686, 1687, 1688, 1689, 1690, 1691, 1692, 1693, 1694, 1695, 1696, 1697, 1698, 1699, 1700, 1701
 1702, 1703, 1704, 1705, 1706, 1707, 1708, 1709, 1710, 1711, 1712, 1713, 1714, 1715, 1716, 1717
 1718, 1719, 1720, 1721, 1722, 1723, 1724, 1725, 1726, 1727, 1728, 1729, 1730, 1731, 1732, 1733
 1734, 1735, 1736, 1737, 1738, 1739, 1740, 1741, 1742, 1743, 1744, 1745, 1746, 1747, 1748, 1749
 1750, 1751, 1752, 1753, 1754, 1755, 1756, 1757, 1758, 1759, 1760, 1761, 1762, 1763, 1764, 1765
 1766, 1767, 1768, 1769, 1770, 1771, 1772, 1773, 1774, 1775, 1776, 1777, 1778, 1779, 1780, 1781
 1782, 1783, 1784, 1785, 1786, 1787, 1788, 1789, 1790, 1791, 1792, 1793, 1794, 1795, 1796, 1797
 1798, 1799, 1800, 1801, 1802, 1803, 1804, 1805, 1806, 1807, 1808, 1809, 1810, 1811, 1812, 1813
 1814, 1815, 1816, 1817, 1818, 1819, 1820, 1821, 1822, 1823, 1824, 1825, 1826, 1827, 1828, 1829
 1830, 1831, 1832, 1833, 1834, 1835, 1836, 1837, 1838, 1839, 1840, 1841, 1842, 1843, 1844, 1845
 1846, 1847, 1848, 1849, 1850, 1851, 1852, 1853, 1854, 1855, 1856, 1857, 1858, 1859, 1860, 1861
 1862, 1863, 1864, 1865, 1866, 1867, 1868, 1869, 1870, 1871, 1872, 1873, 1874, 1875, 1876, 1877
 1878, 1879, 1880, 1881, 1882, 1883, 1884, 1885, 1886, 1887, 1888, 1889, 1890, 1891, 1892, 1893
 1894, 1895, 1896, 1897, 1898, 1899, 1900, 1901, 1902, 1903, 1904, 1905, 1906, 1907, 1908, 1909
 1910, 1911, 1912, 1913, 1914, 1915, 1916, 1917, 1918, 1919, 1920, 1921, 1922, 1923, 1924, 1925
 1926, 1927, 1928, 1929, 1930, 1931, 1932, 1933, 1934, 1935, 1936, 1937, 1938, 1939, 1940, 1941
 1942, 1943, 1944, 1945, 1946, 1947, 1948, 1949, 1950, 1951, 1952, 1953, 1954, 1955, 1956, 1957
 1958, 1959, 1960, 1961, 1962, 1963, 1964, 1965, 1966, 1967, 1968, 1969, 1970, 1971, 1972, 1973
 1974, 1975, 1976, 1977, 1978, 1979, 1980, 1981, 1982, 1983, 1984, 1985, 1986, 1987, 1988, 1989
 1990, 1991, 1992, 1993, 1994, 1995, 1996, 1997, 1998, 1999, 2000, 2001, 2002, 2003, 2004, 2005
 2006, 2007, 2008, 2009, 2010, 2011, 2012, 2013, 2014, 2015, 2016, 2017, 2018, 2019, 2020, 2021
 2022, 2023, 2024, 2025, 2026, 2027, 2028, 2029, 2030, 2031, 2032, 2033, 2034, 2035, 2036, 2037
 2038, 2039, 2040, 2041, 2042, 2043, 2044, 2045, 2046, 2047, 2048, 2049, 2050, 2051, 2052, 2053
 2054, 2055, 2056, 5320, 5321, 5322, 5323, 5324, 5325, 5326, 5327, 5328, 5329, 5330, 5331, 5332
 5333, 5334, 5335, 5336, 5337, 5338, 5339, 5340, 5341, 5342, 5343, 5344, 5345, 5346, 5347, 5348
 5349, 5350
*Elset, elset=orig, instance=TPB-1
    1,    2,    3,    4,    5,    6,    7,    8,    9,   10,   11,   12,   13,   14,   15,   16
   17,   18,   19,   20,   21,   22,   23,   24,   25,   26,   27,   28,   29,   30,   31,   32
   33,   34,   35,   36,   37,   38,   39,   40,   41,   42,   43,   44,   45,   46,   47,   48
   49,   50,   51,   52,   53,   54,   55,   56,   57,   58,   59,   60,   61,   62,   63,   64
   65,   66,   67,   68,   69,   70,   71,   72,   73,   74,   75,   76,   77,   78,   79,   80
   81,   82,   83,   84,   85,   86,   87,   88,   89,   90,   91,   92,   93,   94,   95,   96
   97,   98,   99,  100,  101,  102,  103,  104,  105,  106,  107,  108,  109,  110,  111,  112
  113,  114,  115,  116,  117,  118,  119,  120,  121,  122,  123,  124,  125,  126,  127,  128
  129,  130,  131,  132,  133,  134,  135,  136,  137,  138,  139,  140,  141,  142,  143,  144
  145,  146,  147,  148,  149,  150,  151,  152,  153,  154,  155,  156,  157,  158,  159,  160
  161,  162,  163,  164,  165,  166,  167,  168,  169,  170,  171,  172,  173,  174,  175,  176
  177,  178,  179,  180,  181,  182,  183,  184,  185,  186,  187,  188,  189,  190,  191,  192
  193,  194,  195,  196,  197,  198,  199,  200,  201,  202,  203,  204,  205,  206,  207,  208
  209,  210,  211,  212,  213,  214,  215,  216,  217,  218,  219,  220,  221,  222,  223,  224
  225,  226,  227,  228,  229,  230,  231,  232,  233,  234,  235,  236,  237,  238,  239,  240
  241,  242,  243,  244,  245,  246,  247,  248,  249,  250,  251,  252,  253,  254,  255,  256
  257,  258,  259,  260,  261,  262,  263,  264,  265,  266,  267,  268,  269,  270,  271,  272
  273,  274,  275,  276,  277,  278,  279,  280,  281,  282,  283,  284,  285,  286,  287,  288
  289,  290,  291,  292,  293,  294,  295,  296,  297,  298,  299,  300,  301,  302,  303,  304
  305,  306,  307,  308,  309,  310,  311,  312,  313,  314,  315,  316,  317,  318,  319,  320
  321,  322,  323,  324,  325,  326,  327,  328,  329,  330,  331,  332,  333,  334,  335,  336
  337,  338,  339,  340,  341,  342,  343,  344,  345,  346,  347,  348,  349,  350,  351,  352
  353,  354,  355,  356,  357,  358,  359,  360,  361,  362,  363,  364,  365,  366,  367,  368
  369,  370,  371,  372,  373,  374,  375,  376,  377,  378,  379,  380,  381,  382,  383,  384
  385,  386,  387,  388,  389,  390,  391,  392,  393,  394,  395,  396,  397,  398,  399,  400
  401,  402,  403,  404,  405,  406,  407,  408,  409,  410,  411,  412,  413,  414,  415,  416
  417,  418,  419,  420,  421,  422,  423,  424,  425,  426,  427,  428,  429,  430,  431,  432
  433,  434,  435,  436,  437,  438,  439,  440,  441,  442,  443,  444,  445,  446,  447,  448
  449,  450,  451,  452,  453,  454,  455,  456,  457,  458,  459,  460,  461,  462,  463,  464
  465,  466,  467,  468,  469,  470,  471,  472,  473,  474,  475,  476,  477,  478,  479,  480
  481,  482,  483,  484,  485,  486,  487,  488,  489,  490,  491,  492,  493,  494,  495,  496
  497,  498,  499,  500,  501,  502,  503,  504,  505,  506,  507,  508,  509,  510,  511,  512
  513,  514,  515,  516,  517,  518,  519,  520,  521,  522,  523,  524,  525,  526,  527,  528
  529,  530,  531,  532,  533,  534,  535,  536,  537,  538,  539,  540,  541,  542,  543,  544
  545,  546,  547,  548,  549,  550,  551,  552,  553,  554,  555,  556,  557,  558,  559,  560
  561,  562,  563,  564,  565,  566,  567,  568,  569,  570,  571,  572,  573,  574,  575,  576
  577,  578,  579,  580,  581,  582,  583,  584,  585,  586,  587,  588,  589,  590,  591,  592
  593,  594,  595,  596,  597,  598,  599,  600,  601,  602,  603,  604,  605,  606,  607,  608
  609,  610,  611,  612,  613,  614,  615,  616,  617,  618,  619,  620,  621,  622,  623,  624
  625,  626,  627,  628,  629,  630,  631,  632,  633,  634,  635,  636,  637,  638,  639,  640
  641,  642,  643,  644,  645,  646,  647,  648,  649,  650,  651,  652,  653,  654,  655,  656
  657,  658,  659,  660,  661,  662,  663,  664,  665,  666,  667,  668,  669,  670,  671,  672
  673,  674,  675,  676,  677,  678,  679,  680,  681,  682,  683,  684,  685,  686,  687,  688
  689,  690,  691,  692,  693,  694,  695,  696,  697,  698,  699,  700,  701,  702,  703,  704
  705,  706,  707,  708,  709,  710,  711,  712,  713,  714,  715,  716,  717,  718,  719,  720
  721,  722,  723,  724,  725,  726,  727,  728,  729,  730,  731,  732,  733,  734,  735,  736
  737,  738,  739,  740,  741,  742,  743,  744,  745,  746,  747,  748,  749,  750,  751,  752
  753,  754,  755,  756,  757,  758,  759,  760,  761,  762,  763,  764,  765,  766,  767,  768
  769,  770,  771,  772,  773,  774,  775,  776,  777,  778,  779,  780,  781,  782,  783,  784
  785,  786,  787,  788,  789,  790,  791,  792,  793,  794,  795,  796,  797,  798,  799,  800
  801,  802,  803,  804,  805,  806,  807,  808,  809,  810,  811,  812,  813,  814,  815,  816
  817,  818,  819,  820,  821,  822,  823,  824,  825,  826,  827,  828,  829,  830,  831,  832
  833,  834,  835,  836,  837,  838,  839,  840,  841,  842,  843,  844,  845,  846,  847,  848
  849,  850,  851,  852,  853,  854,  855,  856,  857,  858,  859,  860,  861,  862,  863,  864
  865,  866,  867,  868,  869,  870,  871,  872,  873,  874,  875,  876,  877,  878,  879,  880
  881,  882,  883,  884,  885,  886,  887,  888,  889,  890,  891,  892,  893,  894,  895,  896
  897,  898,  899,  900,  901,  902,  903,  904,  905,  906,  907,  908,  909,  910,  911,  912
  913,  914,  915,  916,  917,  918,  919,  920,  921,  922,  923,  924,  925,  926,  927,  928
  929,  930,  931,  932,  933,  934,  935,  936,  937,  938,  939,  940,  941,  942,  943,  944
  945,  946,  947,  948,  949,  950,  951,  952,  953,  954,  955,  956,  957,  958,  959,  960
  961,  962,  963,  964,  965,  966,  967,  968,  969,  970,  971,  972,  973,  974,  975,  976
  977,  978,  979,  980,  981,  982,  983,  984,  985,  986,  987,  988,  989,  990,  991,  992
  993,  994,  995,  996,  997,  998,  999, 1000, 1001, 1002, 1003, 1004, 1005, 1006, 1007, 1008
 1009, 1010, 1011, 1012, 1013, 1014, 1015, 1016, 1017, 1018, 1019, 1020, 1021, 1022, 1023, 1024
 1025, 1026, 1027, 1028, 1029, 1030, 1031, 1032, 1033, 1034, 1035, 1036, 1037, 1038, 1039, 1040
 1041, 1042, 1043, 1044, 1045, 1046, 1047, 1048, 1049, 1050, 1051, 1052, 1053, 1054, 1055, 1056
 1057, 1058, 1059, 1060, 1061, 1062, 1063, 1064, 1065, 1066, 1067, 1068, 1069, 1070, 1071, 1072
 1073, 1074, 1075, 1076, 1077, 1078, 1079, 1080, 1081, 1082, 1083, 1084, 1085, 1086, 1087, 1088
 1089, 1090, 1091, 1092, 1093, 1094, 1095, 1096, 1097, 1098, 1099, 1100, 1101, 1102, 1103, 1104
 1105, 1106, 1107, 1108, 1109, 1110, 1111, 1112, 1113, 1114, 1115, 1116, 1117, 1118, 1119, 1120
 1121, 1122, 1123, 1124, 1125, 1126, 1127, 1128, 1129, 1130, 1131, 1132, 1133, 1134, 1135, 1136
 1137, 1138, 1139, 1140, 1141, 1142, 1143, 1144, 1145, 1146, 1147, 1148, 1149, 1150, 1151, 1152
 1153, 1154, 1155, 1156, 1157, 1158, 1159, 1160, 1161, 1162, 1163, 1164, 1165, 1166, 1167, 1168
 1169, 1170, 1171, 1172, 1173, 1174, 1175, 1176, 1177, 1178, 1179, 1180, 1181, 1182, 1183, 1184
 1185, 1186, 1187, 1188, 1189, 1190, 1191, 1192, 1193, 1194, 1195, 1196, 1197, 1198, 1199, 1200
 1201, 1202, 1203, 1204, 1205, 1206, 1207, 1208, 1209, 1210, 1211, 1212, 1213, 1214, 1215, 1216
 1217, 1218, 1219, 1220, 1221, 1222, 1223, 1224, 1225, 1226, 1227, 1228, 1229, 1230, 1231, 1232
 1233, 1234, 1235, 1236, 1237, 1238, 1239, 1240, 1241, 1242, 1243, 1244, 1245, 1246, 1247, 1248
 1249, 1250, 1251, 1252, 1253, 1254, 1255, 1256, 1257, 1258, 1259, 1260, 1261, 1262, 1263, 1264
 1265, 1266, 1267, 1268, 1269, 1270, 1271, 1272, 1273, 1274, 1275, 1276, 1277, 1278, 1279, 1280
 1281, 1282, 1283, 1284, 1285, 1286, 1287, 1288, 1289, 1290, 1291, 1292, 1293, 1294, 1295, 1296
 1297, 1298, 1299, 1300, 1301, 1302, 1303, 1304, 1305, 1306, 1307, 1308, 1309, 1310, 1311, 1312
 1313, 1314, 1315, 1316, 1317, 1318, 1319, 1320, 1321, 1322, 1323, 1324, 1325, 1326, 1327, 1328
 1329, 1330, 1331, 1332, 1333, 1334, 1335, 1336, 1337, 1338, 1339, 1340, 1341, 1342, 1343, 1344
 1345, 1346, 1347, 1348, 1349, 1350, 1351, 1352, 1353, 1354, 1355, 1356, 1357, 1358, 1359, 1360
 1361, 1362, 1363, 1364, 1365, 1366, 1367, 1368, 1369, 1370, 1371, 1372, 1373, 1374, 1375, 1376
 1377, 1378, 1379, 1380, 1381, 1382, 1383, 1384, 1385, 1386, 1387, 1388, 1389, 1390, 1391, 1392
 1393, 1394, 1395, 1396, 1397, 1398, 1399, 1400, 1401, 1402, 1403, 1404, 1405, 1406, 1407, 1408
 1409, 1410, 1411, 1412, 1413, 1414, 1415, 1416, 1417, 1418, 1419, 1420, 1421, 1422, 1423, 1424
 1425, 1426, 1427, 1428, 1429, 1430, 1431, 1432, 1433, 1434, 1435, 1436, 1437, 1438, 1439, 1440
 1441, 1442, 1443, 1444, 1445, 1446, 1447, 1448, 1449, 1450, 1451, 1452, 1453, 1454, 1455, 1456
 1457, 1458, 1459, 1460, 1461, 1462, 1463, 1464, 1465, 1466, 1467, 1468, 1469, 1470, 1471, 1472
 1473, 1474, 1475, 1476, 1477, 1478, 1479, 1480, 1481, 1482, 1483, 1484, 1485, 1486, 1487, 1488
 1489, 1490, 1491, 1492, 1493, 1494, 1495, 1496, 1497, 1498, 1499, 1500, 1501, 1502, 1503, 1504
 1505, 1506, 1507, 1508, 1509, 1510, 1511, 1512, 1513, 1514, 1515, 1516, 1517, 1518, 1519, 1520
 1521, 1522, 1523, 1524, 1525, 1526, 1527, 1528, 1529, 1530, 1531, 1532, 1533, 1534, 1535, 1536
 1537, 1538, 1539, 1540, 1541, 1542, 1543, 1544, 1545, 1546, 1547, 1548, 1549, 1550, 1551, 1552
 1553, 1554, 1555, 1556, 1557, 1558, 1559, 1560, 1561, 1562, 1563, 1564, 1565, 1566, 1567, 1568
 1569, 1570, 1571, 1572, 1573, 1574, 1575, 1576, 1577, 1578, 1579, 1580, 1581, 1582, 1583, 1584
 1585, 1586, 1587, 1588, 1589, 1590, 1591, 1592, 1593, 1594, 1595, 1596, 1597, 1598, 1599, 1600
 1601, 1602, 1603, 1604, 1605, 1606, 1607, 1608, 1609, 1610, 1611, 1612, 1613, 1614, 1615, 1616
 1617, 1618, 1619, 1620, 1621, 1622, 1623, 1624, 1625, 1626, 1627, 1628, 1629, 1630, 1631, 1632
 1633, 1634, 1635, 1636, 5105, 5106, 5107, 5108, 5109, 5110, 5111, 5112, 5113, 5114, 5115, 5116
 5117, 5118, 5119, 5120, 5121, 5122, 5123, 5124, 5125, 5126, 5127, 5128, 5129, 5130, 5131, 5132
 5133, 5134, 5135, 5136, 5137, 5138, 5139, 5140, 5141, 5142, 5143, 5144, 5145, 5146, 5147, 5148
*Nset, nset=right, instance=TPB-1
 9,
*Nset, nset=top, instance=TPB-1
  22,  23, 505, 506, 507, 508, 509, 510, 511, 512, 513, 514, 515, 516, 517, 518
*Elset, elset=top, instance=TPB-1, generate
 3004,  4404,   100
** Constraint: Constraint-1
*Equation
2
top, 2, 1.
RP, 2, -1.
**
*Elset, elset=umatelem, instance=TPB-1, generate
5528, 11054, 1
**
*End Assembly
***************************************************************
** 
** MATERIALS
** 
*Material, name=Material-1
*Depvar
      4,
*User Material, constants=1
0.,
** ----------------------------------------------------------------
** 
** STEP: Step-1
** 
*Step, name=Step-1, nlgeom=NO, inc=10000
*Static
0.01, 1., 1e-05, 0.01
*Solution Technique, type=QUASI-NEWTON, reform kernel=25
** 
** BOUNDARY CONDITIONS
** 
** Name: fix_left Type: Displacement/Rotation
*Boundary
left, 1, 1
left, 2, 2
** Name: load Type: Displacement/Rotation
*Boundary
RP, 1, 1
RP, 2, 2, -1.
** Name: right Type: Displacement/Rotation
*Boundary
right, 2, 2
** Name: toporig Type: Displacement/Rotation
*Boundary
orig, 11, 11
** 
** CONTROLS
** 
*Controls, reset
*Controls, parameters=time incrementation
10000, 10000, 8000, 2000, 5000, 5, , 10, , , 
*Controls, parameters=line search
25, , , , 0.01
** 
** OUTPUT REQUESTS
** 
*Restart, write, frequency=0
** 
** FIELD OUTPUT: F-Output-1
** 
*Output, field
*Node Output
NT, RF, U
*Element Output, directions=YES
SDV, 
** 
** HISTORY OUTPUT: H-Output-1
** 
*element output, elset=umatelem
SDV
**
*End Step
